LAMMPS (23 Jun 2022 - Update 3)
#################################################
# Initialize the system:
#################################################
units real
atom_style full
boundary p p f

#################################################
# Read liquid and solid files and define groups:
#################################################
read_data lj-polymer-5.data extra/atom/types 1 group LJFLUID
Reading data file ...
  orthogonal box = (-1.3 0 0) to (30.5 32.7 55)
  1 by 2 by 2 MPI processor grid
  reading atoms ...
  1225 atoms
  reading velocities ...
  1225 velocities
  scanning bonds ...
  1 = max bonds/atom
  scanning angles ...
  1 = max angles/atom
  scanning dihedrals ...
  1 = max dihedrals/atom
  reading bonds ...
  980 bonds
  reading angles ...
  735 angles
  reading dihedrals ...
  490 dihedrals
Finding 1-2 1-3 1-4 neighbors ...
  special bond factors lj:    0        0        0       
  special bond factors coul:  0        0        0       
     2 = max # of 1-2 neighbors
     2 = max # of 1-3 neighbors
     2 = max # of 1-4 neighbors
     4 = max # of special neighbors
  special bonds CPU = 0.001 seconds
  read_data CPU = 0.029 seconds
read_data solid-walls-hcp.data add append offset 1 0 0 0 0 group SOLID
Reading data file ...
  orthogonal box = (-1.3 0 0) to (30.5 32.7 55)
  1 by 2 by 2 MPI processor grid
  reading atoms ...
  724 atoms
  reading velocities ...
  724 velocities
Finding 1-2 1-3 1-4 neighbors ...
  special bond factors lj:    0        0        0       
  special bond factors coul:  0        0        0       
     2 = max # of 1-2 neighbors
     2 = max # of 1-3 neighbors
     2 = max # of 1-4 neighbors
     4 = max # of special neighbors
  special bonds CPU = 0.001 seconds
  read_data CPU = 0.007 seconds

# Define regions and groups to split the SOLID into two groups
variable zmid equal (zhi-zlo)/2

region lower_wall_region block -1 EDGE -1 EDGE -1 ${zmid}
region lower_wall_region block -1 EDGE -1 EDGE -1 27.5
group lower_wall_group region lower_wall_region
1035 atoms in group lower_wall_group
group LOWER_SOLID intersect lower_wall_group SOLID
362 atoms in group LOWER_SOLID

region upper_wall_region block -1 EDGE -1 EDGE ${zmid} EDGE
region upper_wall_region block -1 EDGE -1 EDGE 27.5 EDGE
group upper_wall_group region upper_wall_region
900 atoms in group upper_wall_group
group UPPER_SOLID intersect upper_wall_group SOLID
362 atoms in group UPPER_SOLID

#################################################
# Define relevant variables:
#################################################

variable mass_fluid equal 12
variable mass_solid equal 12
variable sigma_FF equal 3.15
variable sigma_FS equal 3.15
variable epsilon_FF	equal 0.15
variable epsilon_FS equal 0.09

variable T equal 250
variable Tthermostat equal ${T}*0.985
variable Tthermostat equal 250*0.985
variable dens equal 0.85
variable cutoff_radius equal 10
variable tstep equal 1

variable bond_constant equal 0.544217 #Match LJ stiffness
variable bond_length equal 1.12246204831*${sigma_FF} # Bond length is 2^(1/6)*sigma
variable bond_length equal 1.12246204831*3.15 
variable angle_constant equal 5
variable bond_angle equal 110
variable dihedral_coeff_k equal -2.8
variable dihedral_coeff_n equal 1
variable dihedral_coeff_d equal -7
variable thermonum equal 1000
variable num_bins equal 30
variable num_bins_sigmafl equal 400
variable bin_width equal (zhi-zlo)/${num_bins}
variable bin_width equal (zhi-zlo)/30
variable bin_width_sigmafl equal (zhi-zlo)/${num_bins_sigmafl}
variable bin_width_sigmafl equal (zhi-zlo)/400

variable hundredthousandtimeshalfshear equal 170 # This makes it in m/s
variable halfshear equal ${hundredthousandtimeshalfshear}*1e-5 # Real units
variable halfshear equal 170*1e-5 

#################################################
# Define interactions, bonds, dihedrals:
#################################################
# Set respective masses
mass 1 ${mass_fluid}
mass 1 12
mass 2 ${mass_solid}
mass 2 12

# For non-bonded species
pair_style lj/cut ${cutoff_radius}
pair_style lj/cut 10
pair_coeff 1 1 ${epsilon_FF} ${sigma_FF}
pair_coeff 1 1 0.15 ${sigma_FF}
pair_coeff 1 1 0.15 3.15
pair_coeff 1 2 ${epsilon_FS} ${sigma_FS}
pair_coeff 1 2 0.09 ${sigma_FS}
pair_coeff 1 2 0.09 3.15
pair_coeff 2 2 0 0

# For bonds, angles and dihedrals
bond_style harmonic
bond_coeff 1 ${bond_constant} ${bond_length}
bond_coeff 1 0.544217 ${bond_length}
bond_coeff 1 0.544217 3.5357554521765
angle_style harmonic
angle_coeff 1 ${angle_constant} ${bond_angle}
angle_coeff 1 5 ${bond_angle}
angle_coeff 1 5 110
dihedral_style charmm
dihedral_coeff 1 ${dihedral_coeff_k} ${dihedral_coeff_n} ${dihedral_coeff_d} 0.0
dihedral_coeff 1 -2.8 ${dihedral_coeff_n} ${dihedral_coeff_d} 0.0
dihedral_coeff 1 -2.8 1 ${dihedral_coeff_d} 0.0
dihedral_coeff 1 -2.8 1 -7 0.0

#######################################################
# Define computes, thermo_style, timestep and create velocity:
#######################################################

# Compute thermodynamic quantities and bonds. Define thermo_style
compute tempLJ LJFLUID temp
compute binvel all chunk/atom bin/1d z lower ${bin_width} nchunk once
compute binvel all chunk/atom bin/1d z lower 1.83333333333333 nchunk once
compute binvel_sigmafl LJFLUID chunk/atom bin/1d z lower ${bin_width_sigmafl} nchunk once
compute binvel_sigmafl LJFLUID chunk/atom bin/1d z lower 0.1375 nchunk once
compute bondinfo all property/local batom1 batom2 btype
compute FS_upper UPPER_SOLID group/group LJFLUID
compute FS_lower LOWER_SOLID group/group LJFLUID
thermo ${thermonum}
thermo 1000
thermo_style custom step c_tempLJ pe epair ke etotal press
neigh_modify delay 1

#######################################################
# Relax the system using nve/limit:
#######################################################
velocity LJFLUID create ${T} 1 rot yes dist gaussian
velocity LJFLUID create 250 1 rot yes dist gaussian
timestep 5

fix relax_fluid LJFLUID nve/limit 0.05
run 5000
Generated 0 of 1 mixed pair_coeff terms from geometric mixing rule
Neighbor list info ...
  update every 1 steps, delay 1 steps, check yes
  max neighbors/atom: 2000, page size: 100000
  master list distance cutoff = 12
  ghost atom cutoff = 12
  binsize = 6, bins = 6 6 10
  3 neighbor lists, perpetual/occasional/extra = 1 2 0
  (1) pair lj/cut, perpetual
      attributes: half, newton on
      pair build: half/bin/newton
      stencil: half/bin/3d
      bin: standard
  (2) compute group/group, occasional, copy from (1)
      attributes: half, newton on
      pair build: copy
      stencil: none
      bin: none
  (3) compute group/group, occasional, copy from (1)
      attributes: half, newton on
      pair build: copy
      stencil: none
      bin: none
Per MPI rank memory allocation (min/avg/max) = 7.579 | 7.589 | 7.598 Mbytes
   Step        c_tempLJ        PotEng         E_pair         KinEng         TotEng         Press     
         0   250           -3308.1762     -844.63576      912.12788     -2396.0483      1764.9108    
      1000   119.18667     -3389.6637     -933.72021      434.85395     -2954.8098      413.64589    
      2000   104.30121     -3452.7705     -950.928        380.54417     -3072.2264      288.20859    
      3000   99.824469     -3493.3707     -963.96382      364.21072     -3129.16        218.46729    
      4000   94.220163     -3513.1347     -975.8073       343.76335     -3169.3713      157.0637     
      5000   89.229475     -3518.0659     -968.19185      325.55477     -3192.5111      153.22977    
Loop time of 5.19373 on 4 procs for 5000 steps with 1949 atoms

Performance: 415.886 ns/day, 0.058 hours/ns, 962.699 timesteps/s
98.3% CPU use with 4 MPI tasks x no OpenMP threads

MPI task timing breakdown:
Section |  min time  |  avg time  |  max time  |%varavg| %total
---------------------------------------------------------------
Pair    | 3.1622     | 3.5616     | 4.0699     |  19.3 | 68.58
Bond    | 0.11449    | 0.13044    | 0.14161    |   3.0 |  2.51
Neigh   | 0.53556    | 0.53588    | 0.53623    |   0.0 | 10.32
Comm    | 0.37627    | 0.89545    | 1.2989     |  39.5 | 17.24
Output  | 0.00017743 | 0.00019995 | 0.00023689 |   0.0 |  0.00
Modify  | 0.019019   | 0.020915   | 0.022653   |   1.1 |  0.40
Other   |            | 0.04924    |            |       |  0.95

Nlocal:         487.25 ave         528 max         439 min
Histogram: 1 0 0 0 1 0 1 0 0 1
Nghost:        2271.25 ave        2393 max        2137 min
Histogram: 1 1 0 0 0 0 0 0 0 2
Neighs:          51752 ave       57560 max       45513 min
Histogram: 1 0 0 1 0 0 0 1 0 1

Total # of neighbors = 207008
Ave neighs/atom = 106.21242
Ave special neighs/atom = 2.2626988
Neighbor list builds = 233
Dangerous builds = 0

unfix relax_fluid

#######################################################
# Steady state for initial forces and temperature:
#######################################################
timestep 0.5
fix temp_steady_state LJFLUID nvt temp ${T} ${T} 5000
fix temp_steady_state LJFLUID nvt temp 250 ${T} 5000
fix temp_steady_state LJFLUID nvt temp 250 250 5000
run 50000
Generated 0 of 1 mixed pair_coeff terms from geometric mixing rule
Per MPI rank memory allocation (min/avg/max) = 7.579 | 7.589 | 7.598 Mbytes
   Step        c_tempLJ        PotEng         E_pair         KinEng         TotEng         Press     
      5000   89.229475     -3518.0659     -968.19185      325.55477     -3192.5111      153.22977    
      6000   90.812165     -3521.8288     -972.28034      331.32923     -3190.4995      124.49844    
      7000   92.016731     -3520.3333     -976.26773      335.7241      -3184.6092      103.4508     
      8000   89.653891     -3504.0282     -976.21847      327.10325     -3176.9249      89.912698    
      9000   92.500731     -3507.4574     -974.39459      337.48998     -3169.9674      124.04029    
     10000   93.820084     -3505.5049     -968.16339      342.30365     -3163.2012      171.58676    
     11000   94.449793     -3500.0244     -973.09729      344.60116     -3155.4232      148.44214    
     12000   98.466917     -3506.0232     -975.01577      359.25768     -3146.7656      163.93132    
     13000   99.396851     -3499.7583     -970.19664      362.65055     -3137.1077      179.19135    
     14000   100.18618     -3492.7361     -967.65388      365.53043     -3127.2057      222.60681    
     15000   99.802675     -3480.8193     -956.67496      364.13121     -3116.6881      298.73731    
     16000   101.70384     -3476.9706     -963.53608      371.06763     -3105.903       209.78131    
     17000   106.27184     -3482.5256     -962.31241      387.73405     -3094.7915      243.41029    
     18000   104.85783     -3465.7318     -954.42334      382.575       -3083.1568      304.14229    
     19000   105.88357     -3457.6063     -948.36206      386.31741     -3071.2889      350.4339     
     20000   105.14086     -3442.5073     -954.87829      383.60764     -3058.8997      246.24231    
     21000   112.15369     -3455.4673     -956.3082       409.19403     -3046.2733      287.02801    
     22000   111.53598     -3440.193      -938.89316      406.94031     -3033.2527      422.6805     
     23000   116.53101     -3445.1802     -949.52285      425.16475     -3020.0154      328.74145    
     24000   117.02742     -3433.1631     -945.26261      426.97588     -3006.1872      353.00526    
     25000   118.1978      -3423.459      -941.35106      431.24605     -2992.213       444.89112    
     26000   118.93652     -3411.9517     -939.09433      433.94127     -2978.0104      420.42187    
     27000   121.37604     -3406.0698     -926.00387      442.84186     -2963.2279      500.68643    
     28000   119.74148     -3385.4593     -918.23377      436.87818     -2948.5811      533.67704    
     29000   127.04987     -3397.1003     -927.28968      463.5429      -2933.5574      476.75184    
     30000   124.70066     -3373.3791     -936.0174       454.97179     -2918.4073      424.62206    
     31000   127.61299     -3368.1199     -913.61971      465.59746     -2902.5224      609.37897    
     32000   129.92429     -3360.6112     -924.58889      474.03027     -2886.5809      495.25188    
     33000   132.004       -3352.012      -907.14534      481.61811     -2870.3939      649.54674    
     34000   131.25952     -3332.7792     -900.44814      478.90185     -2853.8773      648.00628    
     35000   139.28802     -3345.2841     -904.93641      508.19394     -2837.0902      691.84234    
     36000   142.33358     -3339.2604     -914.5731       519.30572     -2819.9547      603.28211    
     37000   146.5224      -3337.1776     -908.03978      534.58868     -2802.5889      662.87093    
     38000   144.51413     -3311.8808     -896.96667      527.26147     -2784.6194      698.33318    
     39000   147.53294     -3305.2926     -892.50809      538.27563     -2767.0169      764.08849    
     40000   150.83715     -3299.1286     -880.71204      550.33107     -2748.7975      787.8979     
     41000   151.87755     -3284.796      -888.72703      554.12698     -2730.6691      816.14139    
     42000   153.41803     -3271.8666     -891.8649       559.74746     -2712.1192      751.06102    
     43000   158.24597     -3270.7005     -885.92901      577.36224     -2693.3382      830.3712     
     44000   164.7237      -3275.2201     -888.75784      600.99631     -2674.2238      787.69153    
     45000   160.22578     -3239.7109     -878.33352      584.58561     -2655.1253      818.2079     
     46000   162.55515     -3229.0905     -866.68168      593.08432     -2636.0062      905.25661    
     47000   169.62742     -3235.3989     -864.31173      618.8876      -2616.5113      931.34355    
     48000   174.44036     -3233.0618     -860.76093      636.44765     -2596.6142      974.44525    
     49000   173.12639     -3208.4974     -861.74084      631.65362     -2576.8437      946.44136    
     50000   174.5321      -3193.7665     -863.3844       636.78237     -2556.9841      965.4195     
     51000   182.22889     -3201.4933     -856.94324      664.86421     -2536.6291      1016.5279    
     52000   182.73878     -3183.0958     -854.77272      666.72454     -2516.3713      991.21057    
     53000   185.4095      -3172.4032     -843.30221      676.46869     -2495.9345      1075.4888    
     54000   186.45413     -3155.9851     -861.18544      680.28003     -2475.705       996.50309    
     55000   186.94135     -3137.2618     -833.09041      682.05766     -2455.2042      1188.3563    
WARNING: Bond/angle/dihedral extent > half of periodic box length (../domain.cpp:940)
Loop time of 45.7336 on 4 procs for 50000 steps with 1949 atoms

Performance: 47.230 ns/day, 0.508 hours/ns, 1093.289 timesteps/s
97.8% CPU use with 4 MPI tasks x no OpenMP threads

MPI task timing breakdown:
Section |  min time  |  avg time  |  max time  |%varavg| %total
---------------------------------------------------------------
Pair    | 30.222     | 34.257     | 39.249     |  63.7 | 74.90
Bond    | 1.1034     | 1.2667     | 1.3801     |  10.4 |  2.77
Neigh   | 0.65893    | 0.65933    | 0.65978    |   0.0 |  1.44
Comm    | 3.5021     | 8.5858     | 12.654     | 130.3 | 18.77
Output  | 0.0011861  | 0.0013425  | 0.001723   |   0.6 |  0.00
Modify  | 0.43806    | 0.46213    | 0.48948    |   3.1 |  1.01
Other   |            | 0.5016     |            |       |  1.10

Nlocal:         487.25 ave         537 max         439 min
Histogram: 1 0 0 1 0 0 1 0 0 1
Nghost:           2295 ave        2416 max        2168 min
Histogram: 1 1 0 0 0 0 0 0 0 2
Neighs:        51789.2 ave       58638 max       45923 min
Histogram: 1 0 1 0 0 0 1 0 0 1

Total # of neighbors = 207157
Ave neighs/atom = 106.28887
Ave special neighs/atom = 2.2626988
Neighbor list builds = 299
Dangerous builds = 0

unfix temp_steady_state

#######################################################
# Steady state for solid walls:
#######################################################

timestep ${tstep}
timestep 1
fix temp_steady_state LJFLUID nvt temp ${T} ${T} 5000
fix temp_steady_state LJFLUID nvt temp 250 ${T} 5000
fix temp_steady_state LJFLUID nvt temp 250 250 5000

# fix temp_steady_state LJFLUID rigid/nvt molecule temp ${T} ${T} 5000
fix upperwall_fix UPPER_SOLID move linear ${halfshear} 0 0
fix upperwall_fix UPPER_SOLID move linear 0.0017 0 0
fix lowerwall_fix LOWER_SOLID move linear -${halfshear} 0 0
fix lowerwall_fix LOWER_SOLID move linear -0.0017 0 0

run 100000
Generated 0 of 1 mixed pair_coeff terms from geometric mixing rule
WARNING: Bond/angle/dihedral extent > half of periodic box length (../domain.cpp:940)
Per MPI rank memory allocation (min/avg/max) = 8.329 | 8.339 | 8.349 Mbytes
   Step        c_tempLJ        PotEng         E_pair         KinEng         TotEng         Press     
     55000   186.94135     -3137.2618     -833.09041      682.05766     -2455.2042      1188.3563    
     56000   187.76075     -3132.1423     -828.82189      715.05241     -2417.0898      1248.836     
     57000   194.99036     -3141.0953     -839.00715      741.42972     -2399.6656      1233.7406    
     58000   194.54982     -3117.1759     -830.0414       739.8224      -2377.3535      1238.2933    
     59000   201.72284     -3127.9282     -852.94921      765.99325     -2361.935       1087.6197    
     60000   198.51302     -3095.6327     -830.86604      754.28221     -2341.3505      1237.4892    
     61000   203.84049     -3091.068      -817.41454      773.71954     -2317.3484      1309.0356    
     62000   205.08266     -3071.9295     -816.87293      778.25159     -2293.6779      1301.7649    
     63000   208.70626     -3062.1324     -822.04276      791.47236     -2270.6601      1297.8846    
     64000   218.72409     -3074.3965     -830.20676      828.02252     -2246.374       1261.4515    
     65000   220.85495     -3058.395      -829.19403      835.79698     -2222.598       1247.051     
     66000   228.51313     -3057.9072     -823.2549       863.73795     -2194.1692      1366.4055    
     67000   230.27028     -3036.7615     -820.26326      870.14893     -2166.6126      1415.1873    
     68000   232.51481     -3019.9809     -793.08173      878.33811     -2141.6428      1507.7326    
     69000   231.54368     -2990.54       -801.51673      874.79495     -2115.745       1397.6206    
     70000   239.47145     -2993.5185     -806.43467      903.71949     -2089.799       1441.2201    
     71000   237.16019     -2959.1975     -801.64559      895.28684     -2063.9107      1471.7925    
     72000   244.31924     -2962.1211     -803.98521      921.40672     -2040.7144      1418.9814    
     73000   247.28002     -2950.7241     -801.34851      932.20917     -2018.5149      1477.9545    
     74000   235.70657     -2888.0206     -769.93678      889.98328     -1998.0374      1611.9816    
     75000   256.38795     -2945.8691     -765.53064      965.43956     -1980.4296      1744.8295    
     76000   254.85579     -2924.7063     -766.93525      959.84945     -1964.8568      1720.7723    
     77000   253.80496     -2907.292      -766.1231       956.01548     -1951.2765      1747.4856    
     78000   248.77454     -2875.8454     -764.50345      937.66192     -1938.1835      1624.8265    
     79000   265.57663     -2929.1669     -784.87888      998.96454     -1930.2024      1613.1916    
     80000   255.01718     -2885.6288     -767.80488      960.43828     -1925.1905      1690.3903    
     81000   259.49856     -2897.4246     -796.80818      976.78866     -1920.6359      1567.1065    
     82000   250.98418     -2865.0458     -756.99308      945.72382     -1919.322       1724.2394    
     83000   262.0668      -2906.3211     -779.11567      986.1589      -1920.1622      1579.1934    
     84000   256.18443     -2886.0122     -764.15001      964.69701     -1921.3152      1693.4154    
     85000   260.46595     -2907.9514     -778.9664       980.31819     -1927.6332      1608.2335    
     86000   260.18099     -2913.7647     -794.85313      979.27851     -1934.4862      1496.3281    
     87000   257.37266     -2911.7264     -782.22239      969.03227     -1942.6941      1601.7642    
     88000   254.0336      -2911.8998     -778.8569       956.84968     -1955.0502      1623.0399    
     89000   249.66122     -2904.622      -768.79984      940.89698     -1963.725       1632.4947    
     90000   252.43618     -2921.0781     -779.17346      951.02147     -1970.0567      1551.8265    
     91000   253.97018     -2935.0466     -792.69647      956.61828     -1978.4283      1512.0401    
     92000   246.38066     -2915.5246     -774.56912      928.92785     -1986.5967      1624.9903    
     93000   246.81765     -2924.9653     -758.52257      930.52219     -1994.4431      1754.8731    
     94000   250.76441     -2950.3416     -772.67633      944.92201     -2005.4196      1672.2064    
     95000   245.82872     -2937.3749     -788.5501       926.91406     -2010.4609      1515.7234    
     96000   242.16681     -2928.6724     -801.16978      913.55355     -2015.1189      1384.6143    
     97000   242.5186      -2934.2448     -790.31584      914.83708     -2019.4078      1473.6657    
     98000   243.27293     -2937.0767     -792.52186      917.58923     -2019.4875      1503.614     
     99000   246.46673     -2947.2074     -788.46632      929.24186     -2017.9656      1526.166     
    100000   244.47438     -2936.2435     -794.04444      921.97276     -2014.2708      1495.2198    
    101000   246.01031     -2937.5972     -776.30789      927.57662     -2010.0206      1632.6582    
    102000   243.20543     -2919.3105     -769.89252      917.34296     -2001.9675      1627.9868    
    103000   247.03172     -2922.6067     -768.15102      931.30323     -1991.3035      1688.7458    
    104000   250.9904      -2926.852      -783.3054       945.74651     -1981.1055      1578.0229    
    105000   248.66649     -2908.2884     -778.19178      937.26772     -1971.0207      1580.6798    
    106000   246.66223     -2890.9078     -776.33192      929.95514     -1960.9527      1574.3367    
    107000   252.08489     -2901.2466     -786.19553      949.73978     -1951.5068      1498.1001    
    108000   248.69645     -2881.396      -780.92715      937.37701     -1944.019       1579.0992    
    109000   254.5547      -2896.3737     -776.63469      958.7509      -1937.6228      1579.4838    
    110000   256.84985     -2899.0033     -775.57715      967.1248      -1931.8785      1599.2818    
    111000   255.17356     -2886.1481     -750.77309      961.00883     -1925.1392      1811.8918    
    112000   262.95648     -2911.7953     -766.41631      989.40489     -1922.3904      1752.8468    
    113000   259.52597     -2898.0996     -791.34588      976.88866     -1921.2109      1511.7025    
    114000   254.52349     -2882.0282     -774.42956      958.63704     -1923.3912      1637.5188    
    115000   254.77538     -2886.3473     -778.41851      959.55608     -1926.7912      1576.8099    
    116000   265.35138     -2928.9517     -793.46322      998.14273     -1930.809       1617.7846    
    117000   254.09269     -2895.3707     -796.36896      957.06528     -1938.3054      1538.1337    
    118000   247.24679     -2879.4611     -774.56227      932.08792     -1947.3731      1559.0136    
    119000   251.72653     -2905.1077     -776.28862      948.4323      -1956.6754      1644.8249    
    120000   247.94199     -2899.9605     -786.75896      934.62435     -1965.3362      1552.4137    
    121000   247.65556     -2905.9318     -757.09772      933.57934     -1972.3525      1733.3644    
    122000   246.37469     -2907.7797     -786.81605      928.90604     -1978.8737      1512.4717    
    123000   245.20358     -2910.6588     -778.50976      924.63325     -1986.0256      1576.3562    
    124000   243.15279     -2908.7297     -777.08482      917.15092     -1991.5788      1611.3488    
    125000   244.50546     -2916.1581     -768.10503      922.08615     -1994.0719      1636.8834    
    126000   243.13639     -2914.3206     -799.43309      917.09108     -1997.2296      1432.5475    
    127000   246.45234     -2926.7513     -796.2218       929.18936     -1997.5619      1535.1768    
    128000   246.50064     -2926.17       -787.69518      929.36559     -1996.8044      1538.5886    
    129000   248.90347     -2933.8369     -789.7479       938.13233     -1995.7046      1501.6605    
    130000   248.10542     -2926.6819     -773.77303      935.22066     -1991.4612      1606.1429    
    131000   246.96773     -2918.8301     -789.18725      931.06976     -1987.7603      1587.3804    
    132000   248.5379      -2919.1647     -789.81417      936.79854     -1982.3661      1553.8618    
    133000   249.16482     -2914.9452     -795.07407      939.08589     -1975.8593      1475.0368    
    134000   247.16757     -2897.6056     -769.63199      931.79887     -1965.8067      1625.0735    
    135000   245.46107     -2882.558      -773.42916      925.57269     -1956.9853      1616.5314    
    136000   258.05446     -2919.7708     -767.27587      971.51982     -1948.251       1705.153     
    137000   250.81745     -2887.0054     -776.96274      945.1155      -1941.8899      1595.5086    
    138000   260.02404     -2913.7544     -776.98371      978.70587     -1935.0485      1597.522     
    139000   257.06591     -2900.9555     -763.35932      967.9131      -1933.0424      1686.8529    
    140000   247.44208     -2863.6061     -756.23801      932.80044     -1930.8056      1702.1561    
    141000   256.9995      -2895.186      -769.58859      967.6708      -1927.5152      1616.7554    
    142000   256.76558     -2891.27       -786.48713      966.81735     -1924.4527      1498.6661    
    143000   252.91178     -2879.0694     -784.27426      952.75668     -1926.3128      1555.9191    
    144000   248.9584      -2867.5078     -757.15412      938.33275     -1929.175       1727.3195    
    145000   252.80103     -2888.1473     -771.49022      952.35262     -1935.7946      1693.1154    
    146000   251.31293     -2892.6895     -754.78821      946.92327     -1945.7662      1779.7686    
    147000   252.71735     -2910.472      -794.77866      952.04731     -1958.4247      1515.774     
    148000   244.35874     -2891.6425     -765.16862      921.55083     -1970.0917      1711.2881    
    149000   253.15418     -2932.3207     -801.81611      953.64109     -1978.6796      1484.8192    
    150000   242.48035     -2897.8346     -778.34809      914.6975      -1983.1371      1570.6475    
    151000   249.42909     -2927.0013     -770.39982      940.05006     -1986.9513      1637.1328    
    152000   248.28934     -2927.6541     -783.44128      935.89168     -1991.7624      1561.0612    
    153000   247.86166     -2927.7044     -791.41731      934.33128     -1993.3731      1457.7022    
    154000   246.3044      -2922.7611     -776.64963      928.64958     -1994.1116      1583.8807    
    155000   246.83335     -2923.1471     -781.85089      930.57949     -1992.5676      1566.8252    
WARNING: Bond/angle/dihedral extent > half of periodic box length (../domain.cpp:940)
Loop time of 98.0244 on 4 procs for 100000 steps with 1949 atoms

Performance: 88.141 ns/day, 0.272 hours/ns, 1020.154 timesteps/s
97.6% CPU use with 4 MPI tasks x no OpenMP threads

MPI task timing breakdown:
Section |  min time  |  avg time  |  max time  |%varavg| %total
---------------------------------------------------------------
Pair    | 61.11      | 69.871     | 80.815     |  99.8 | 71.28
Bond    | 2.2035     | 2.5861     | 2.8695     |  17.5 |  2.64
Neigh   | 3.8248     | 3.8277     | 3.8303     |   0.1 |  3.90
Comm    | 7.8056     | 18.953     | 27.782     | 196.2 | 19.33
Output  | 0.0026352  | 0.0029598  | 0.0037842  |   0.9 |  0.00
Modify  | 1.489      | 1.561      | 1.6107     |   3.8 |  1.59
Other   |            | 1.224      |            |       |  1.25

Nlocal:         487.25 ave         541 max         436 min
Histogram: 1 0 0 1 0 1 0 0 0 1
Nghost:           2301 ave        2428 max        2175 min
Histogram: 2 0 0 0 0 0 0 0 0 2
Neighs:        51675.8 ave       59112 max       44790 min
Histogram: 1 0 1 0 0 0 1 0 0 1

Total # of neighbors = 206703
Ave neighs/atom = 106.05593
Ave special neighs/atom = 2.2626988
Neighbor list builds = 1664
Dangerous builds = 0

unfix temp_steady_state

#######################################################
# Final run and gather data:
#######################################################
compute msd_ljfluid LJFLUID msd com yes

fix nvt_data_run LJFLUID nvt temp ${T} ${T} 25000
fix nvt_data_run LJFLUID nvt temp 250 ${T} 25000
fix nvt_data_run LJFLUID nvt temp 250 250 25000

fix binvelocity_data all ave/chunk 1 3500 3500 binvel vx file VelProfile_${hundredthousandtimeshalfshear}_${dens}_${T}K.txt
fix binvelocity_data all ave/chunk 1 3500 3500 binvel vx file VelProfile_170_${dens}_${T}K.txt
fix binvelocity_data all ave/chunk 1 3500 3500 binvel vx file VelProfile_170_0.85_${T}K.txt
fix binvelocity_data all ave/chunk 1 3500 3500 binvel vx file VelProfile_170_0.85_250K.txt

fix ncount_data LJFLUID ave/chunk 1 175000 175000 binvel_sigmafl vx file Ncount_${hundredthousandtimeshalfshear}_${dens}_${T}K.txt
fix ncount_data LJFLUID ave/chunk 1 175000 175000 binvel_sigmafl vx file Ncount_170_${dens}_${T}K.txt
fix ncount_data LJFLUID ave/chunk 1 175000 175000 binvel_sigmafl vx file Ncount_170_0.85_${T}K.txt
fix ncount_data LJFLUID ave/chunk 1 175000 175000 binvel_sigmafl vx file Ncount_170_0.85_250K.txt

fix thermo_data all print 1000 "$(step) $(c_tempLJ) $(pe) $(ke) $(etotal) $(press)" file slipeq_run.txt screen no title "Time-step Temperature PE KE TE Pressure"

fix pressure_XZ_data all print 3500 "$(step) $(c_tempLJ) $(pxz)" file pxz_slipeq_run.txt screen no title "Time-step Temperature Pxz"

fix forces_walls_fluid_data all print 3500 "$(step) $(c_FS_upper[1]) $(c_FS_lower[1])" file forces_FS_slipeq_run.txt screen no title "Time-step Force_Upper Force_Lower"

fix msd_ljfluid_data all print 70000 "$(step) $(c_msd_ljfluid[1]) $(c_msd_ljfluid[2]) $(c_msd_ljfluid[3]) $(c_msd_ljfluid[4])" file MSD_${dens}_${epsilon_FF}_${T}K.txt screen no title "Time-step MSD_X MSD_Y MSD_Z MSD"
fix msd_ljfluid_data all print 70000 "$(step) $(c_msd_ljfluid[1]) $(c_msd_ljfluid[2]) $(c_msd_ljfluid[3]) $(c_msd_ljfluid[4])" file MSD_0.85_${epsilon_FF}_${T}K.txt screen no title "Time-step MSD_X MSD_Y MSD_Z MSD"
fix msd_ljfluid_data all print 70000 "$(step) $(c_msd_ljfluid[1]) $(c_msd_ljfluid[2]) $(c_msd_ljfluid[3]) $(c_msd_ljfluid[4])" file MSD_0.85_0.15_${T}K.txt screen no title "Time-step MSD_X MSD_Y MSD_Z MSD"
fix msd_ljfluid_data all print 70000 "$(step) $(c_msd_ljfluid[1]) $(c_msd_ljfluid[2]) $(c_msd_ljfluid[3]) $(c_msd_ljfluid[4])" file MSD_0.85_0.15_250K.txt screen no title "Time-step MSD_X MSD_Y MSD_Z MSD"

dump trajectory_file all atom 70000 LJLAYERS_${dens}_${epsilon_FF}_${T}K.lammpstrj
dump trajectory_file all atom 70000 LJLAYERS_0.85_${epsilon_FF}_${T}K.lammpstrj
dump trajectory_file all atom 70000 LJLAYERS_0.85_0.15_${T}K.lammpstrj
dump trajectory_file all atom 70000 LJLAYERS_0.85_0.15_250K.lammpstrj
dump bonds_data all local 70000 bond_information.lammpstrj c_bondinfo[1] c_bondinfo[2] c_bondinfo[3]


run 3500000
Generated 0 of 1 mixed pair_coeff terms from geometric mixing rule
WARNING: Bond/angle/dihedral extent > half of periodic box length (../domain.cpp:940)
Per MPI rank memory allocation (min/avg/max) = 8.955 | 8.964 | 8.974 Mbytes
   Step        c_tempLJ        PotEng         E_pair         KinEng         TotEng         Press     
    155000   246.83335     -2923.1471     -781.85089      930.57949     -1992.5676      1566.8252    
    156000   247.29842     -2923.3947     -788.00032      932.2763      -1991.1184      1533.9236    
    157000   249.73298     -2931.5134     -792.11627      941.15883     -1990.3546      1520.7135    
    158000   245.73358     -2914.9072     -782.62105      926.56697     -1988.3403      1507.9344    
    159000   251.12395     -2933.1583     -787.25034      946.23378     -1986.9246      1612.2721    
    160000   252.91702     -2938.9834     -789.68         952.77581     -1986.2076      1550.7319    
    161000   245.68294     -2910.6272     -766.06687      926.3822      -1984.245       1694.4048    
    162000   243.20521     -2900.6079     -774.48202      917.34218     -1983.2658      1602.1221    
    163000   248.71358     -2916.7168     -767.89336      937.43952     -1979.2773      1723.7568    
    164000   254.27727     -2937.2151     -779.28262      957.73871     -1979.4763      1619.3723    
    165000   251.09691     -2922.9989     -776.97986      946.13513     -1976.8638      1567.2232    
    166000   252.44491     -2924.1337     -792.6531       951.05331     -1973.0804      1548.512     
    167000   247.03068     -2901.6        -780.95259      931.29945     -1970.3006      1530.5989    
    168000   245.69267     -2896.4744     -772.46876      926.41768     -1970.0568      1612.128     
    169000   245.41713     -2893.9317     -779.07815      925.41237     -1968.5193      1583.9332    
    170000   245.07951     -2889.759      -765.49121      924.18057     -1965.5784      1625.4181    
    171000   242.71273     -2881.3328     -770.11131      915.54536     -1965.7874      1595.9745    
    172000   264.77121     -2959.8719     -803.23391      996.02598     -1963.846       1518.701     
    173000   247.56992     -2896.7052     -798.77966      933.26687     -1963.4383      1450.0214    
    174000   254.57311     -2916.9707     -789.27467      958.81807     -1958.1527      1541.3741    
    175000   254.46323     -2915.4506     -784.0775       958.41718     -1957.0334      1569.6194    
    176000   255.65297     -2918.2304     -788.00669      962.75796     -1955.4725      1539.339     
    177000   263.08726     -2943.3057     -772.67692      989.88205     -1953.4236      1699.4332    
    178000   255.71916     -2913.7183     -768.03782      962.99946     -1950.7189      1697.0153    
    179000   253.70391     -2903.6351     -773.95519      955.64679     -1947.9883      1642.4847    
    180000   259.66551     -2921.1022     -769.5585       977.39776     -1943.7044      1670.31      
    181000   243.97433     -2861.9131     -770.59766      920.1483      -1941.7648      1638.2944    
    182000   248.97695     -2880.3567     -774.26894      938.40042     -1941.9563      1573.3991    
    183000   258.40169     -2913.4953     -771.9074       972.7867      -1940.7086      1635.4795    
    184000   253.1521      -2892.0906     -795.68714      953.6335      -1938.4571      1515.9936    
    185000   253.8553      -2892.4346     -757.37196      956.19914     -1936.2355      1734.6554    
    186000   258.71655     -2908.4047     -782.26975      973.93547     -1934.4692      1595.8282    
    187000   255.48188     -2893.7337     -790.55335      962.13375     -1931.6         1509.0187    
    188000   262.71376     -2920.2661     -783.9236       988.51932     -1931.7468      1618.0753    
    189000   264.41138     -2926.1895     -772.99925      994.71312     -1931.4763      1728.4159    
    190000   256.216       -2894.461      -782.15464      964.8122      -1929.6488      1600.7697    
    191000   253.55868     -2882.259      -786.38234      955.11693     -1927.142       1559.1138    
    192000   253.8877      -2880.6342     -762.50895      956.31734     -1924.3168      1681.4311    
    193000   255.24349     -2885.7193     -764.3521       961.26396     -1924.4554      1709.3019    
    194000   250.46233     -2865.2055     -770.2897       943.81986     -1921.3857      1613.7743    
    195000   252.96455     -2873.4813     -779.83024      952.94924     -1920.5321      1620.8431    
    196000   257.10309     -2888.6797     -781.95162      968.04873     -1920.631       1622.5196    
    197000   263.45177     -2908.7669     -766.82489      991.21198     -1917.5549      1725.1541    
    198000   266.32807     -2916.3332     -772.05306      1001.7062     -1914.627       1681.3547    
    199000   258.10048     -2888.1398     -781.20481      971.68771     -1916.4521      1616.9545    
    200000   249.21548     -2854.7177     -758.03782      939.2707      -1915.447       1668.3444    
    201000   256.55283     -2882.0356     -784.25887      966.0411      -1915.9945      1537.3889    
    202000   256.15693     -2881.0701     -770.33208      964.59666     -1916.4735      1633.9077    
    203000   262.99367     -2904.3652     -789.25493      989.5406      -1914.8246      1514.0316    
    204000   258.833       -2890.224      -763.3093       974.36034     -1915.8637      1674.8024    
    205000   253.96291     -2872.3153     -756.18765      956.59177     -1915.7236      1683.8364    
    206000   257.8373      -2887.6487     -773.52553      970.72753     -1916.9212      1698.1406    
    207000   251.89723     -2865.5002     -765.25762      949.05509     -1916.4451      1646.4875    
    208000   255.45309     -2879.3969     -764.34412      962.02871     -1917.3682      1695.5522    
    209000   258.46693     -2890.3248     -788.88796      973.02473     -1917.3001      1550.1128    
    210000   251.43523     -2864.6732     -758.53143      947.36951     -1917.3037      1710.4902    
    211000   254.53342     -2877.9202     -772.71831      958.67328     -1919.2469      1645.0206    
    212000   255.22199     -2881.1653     -758.51364      961.18553     -1919.9797      1694.6866    
    213000   262.63679     -2910.9413     -788.07466      988.23852     -1922.7028      1583.2695    
    214000   260.49791     -2903.7917     -760.76136      980.43478     -1923.3569      1712.63      
    215000   253.59886     -2878.8722     -781.38035      955.26353     -1923.6086      1518.7251    
    216000   252.67303     -2876.573      -767.29415      951.8856      -1924.6874      1674.691     
    217000   251.65833     -2876.4174     -768.88801      948.18348     -1928.2339      1637.6517    
    218000   257.29716     -2897.665      -780.26123      968.7568      -1928.9082      1606.6473    
    219000   261.38747     -2914.5758     -766.30811      983.68034     -1930.8954      1696.0123    
    220000   260.41107     -2911.415      -785.22922      980.11795     -1931.297       1623.3677    
    221000   255.75311     -2896.856      -753.99498      963.12332     -1933.7327      1758.9083    
    222000   254.07324     -2891.9771     -763.42726      956.9943      -1934.9828      1759.3214    
    223000   262.62301     -2922.8058     -789.17102      988.18823     -1934.6175      1568.0795    
    224000   255.89612     -2901.3241     -773.60314      963.6451      -1937.679       1629.776     
    225000   251.59141     -2886.0035     -762.75342      947.9393      -1938.0642      1663.6533    
    226000   251.77386     -2885.0801     -756.49129      948.60499     -1936.4751      1659.0048    
    227000   250.07417     -2879.2089     -781.08132      942.40363     -1936.8053      1549.9748    
    228000   242.16752     -2850.1126     -753.25794      913.55614     -1936.5565      1703.6532    
    229000   262.18905     -2922.5379     -779.92267      986.60494     -1935.933       1547.7028    
    230000   247.47581     -2868.5042     -766.48687      932.92349     -1935.5807      1633.2922    
    231000   252.87125     -2889.101      -794.39822      952.60884     -1936.4922      1466.0191    
    232000   255.76827     -2900.2139     -774.68866      963.17862     -1937.0353      1618.8737    
    233000   245.31999     -2862.1038     -760.95148      925.05796     -1937.0459      1583.4519    
    234000   253.02718     -2892.3959     -770.21899      953.17776     -1939.2181      1650.8078    
    235000   259.10599     -2915.3645     -757.7934       975.35635     -1940.0081      1787.4601    
    236000   255.01298     -2901.093      -769.73676      960.42295     -1940.6701      1648.0059    
    237000   254.43707     -2900.111      -781.34808      958.32174     -1941.7892      1627.0645    
    238000   250.21305     -2884.5658     -781.03147      942.91036     -1941.6554      1559.0564    
    239000   253.16577     -2896.0864     -789.15464      953.6834      -1942.403       1515.348     
    240000   259.82029     -2920.9857     -784.66666      977.96249     -1943.0232      1609.7159    
    241000   256.27429     -2905.6117     -778.30271      965.02486     -1940.5868      1627.7741    
    242000   252.29736     -2892.4382     -777.28013      950.51498     -1941.9232      1623.3175    
    243000   256.48915     -2907.9354     -776.50051      965.80878     -1942.1266      1607.888     
    244000   261.36604     -2926.1669     -786.48359      983.60216     -1942.5647      1610.0922    
    245000   251.26901     -2890.7663     -765.836        946.76305     -1944.0032      1638.55      
    246000   254.75092     -2906.5735     -768.64417      959.46681     -1947.1067      1653.8407    
    247000   248.50807     -2885.5165     -780.7443       936.68971     -1948.8267      1604.9404    
    248000   244.97071     -2874.3276     -761.01931      923.78362     -1950.544       1730.6855    
    249000   253.31122     -2905.9355     -779.51693      954.21406     -1951.7214      1601.809     
    250000   251.05091     -2896.15       -784.59006      945.9673      -1950.1827      1581.6923    
    251000   258.24442     -2921.8515     -784.19881      972.2129      -1949.6386      1563.1925    
    252000   246.83584     -2879.3798     -770.60563      930.58855     -1948.7912      1649.7681    
    253000   250.84505     -2894.5165     -776.73193      945.2162      -1949.3003      1608.5698    
    254000   251.1569      -2896.3093     -778.93669      946.35401     -1949.9553      1566.8343    
    255000   246.01901     -2877.3849     -774.7731       927.60835     -1949.7765      1635.2638    
    256000   258.73069     -2922.7269     -785.4976       973.98705     -1948.7399      1630.1859    
    257000   261.9985      -2935.5783     -779.36133      985.9097      -1949.6686      1707.6847    
    258000   256.12836     -2914.3144     -787.43405      964.49245     -1949.8219      1571.424     
    259000   254.26003     -2907.0691     -763.32363      957.67579     -1949.3934      1726.2058    
    260000   249.26141     -2888.7335     -775.17026      939.43827     -1949.2952      1583.8975    
    261000   257.22343     -2917.8338     -773.22335      968.48781     -1949.346       1562.7537    
    262000   247.81543     -2881.6483     -751.9003       934.1626      -1947.4857      1805.4233    
    263000   248.85086     -2887.8534     -801.94065      937.94038     -1949.9131      1429.0526    
    264000   256.31918     -2914.2425     -783.98788      965.18864     -1949.0539      1574.5368    
    265000   248.50797     -2884.4282     -756.62842      936.68934     -1947.7389      1687.2942    
    266000   254.70836     -2907.3354     -782.85371      959.31154     -1948.0238      1595.4389    
    267000   257.78109     -2918.9788     -773.31499      970.52242     -1948.4564      1660.4932    
    268000   256.01654     -2914.0233     -786.14116      964.08445     -1949.9389      1534.5766    
    269000   251.66852     -2897.6693     -778.92961      948.22063     -1949.4487      1651.5432    
    270000   253.7651      -2901.894      -760.76786      955.87004     -1946.024       1753.4987    
    271000   247.6082      -2879.135      -760.89521      933.40651     -1945.7285      1714.9576    
    272000   245.37978     -2871.4613     -762.18659      925.27612     -1946.1851      1669.4086    
    273000   250.47292     -2890.2939     -784.9775       943.8585      -1946.4354      1553.4118    
    274000   256.10078     -2912.5942     -777.94567      964.39179     -1948.2024      1631.854     
    275000   256.37675     -2913.6033     -781.33044      965.39868     -1948.2047      1610.6843    
    276000   250.78408     -2894.6979     -766.10624      944.99375     -1949.7041      1732.0935    
    277000   255.98175     -2916.8317     -764.45408      963.95751     -1952.8741      1709.7691    
    278000   260.45847     -2931.7258     -777.33917      980.2909      -1951.4349      1682.6904    
    279000   259.58222     -2930.3323     -791.38509      977.09389     -1953.2384      1533.319     
    280000   253.96818     -2908.8755     -786.69854      956.61097     -1952.2645      1586.525     
    281000   257.4637      -2921.2098     -785.76565      969.36445     -1951.8454      1562.0755    
    282000   243.55918     -2870.5187     -758.12283      918.63362     -1951.8851      1701.8862    
    283000   252.18585     -2901.5642     -757.17792      950.10815     -1951.4561      1740.2437    
    284000   253.42859     -2906.3908     -792.1799       954.64228     -1951.7486      1497.8409    
    285000   247.61585     -2885.4241     -785.36619      933.43442     -1951.9897      1518.8146    
    286000   251.82119     -2902.4715     -766.60166      948.77766     -1953.6938      1609.0245    
    287000   255.12867     -2914.7647     -779.09413      960.84503     -1953.9197      1595.1803    
    288000   255.98471     -2918.2462     -796.42442      963.96834     -1954.2779      1485.437     
    289000   252.89988     -2906.2828     -761.18138      952.71328     -1953.5695      1714.5497    
    290000   242.85548     -2869.8876     -761.05149      916.06616     -1953.8214      1701.3165    
    291000   245.19049     -2879.785      -781.90877      924.58547     -1955.1996      1537.8883    
    292000   251.46433     -2902.0516     -763.89487      947.47565     -1954.5759      1670.6835    
    293000   249.56206     -2897.9322     -776.75235      940.53521     -1957.397       1570.8909    
    294000   258.19373     -2929.3853     -791.77777      972.02794     -1957.3574      1567.8024    
    295000   247.56038     -2890.8569     -765.09635      933.23205     -1957.6249      1646.292     
    296000   254.0942      -2914.9035     -787.19609      957.07076     -1957.8327      1519.6003    
    297000   253.54461     -2914.1758     -779.44126      955.06559     -1959.1102      1591.1682    
    298000   255.49216     -2920.9849     -777.51295      962.17125     -1958.8136      1669.3779    
    299000   253.59159     -2914.4539     -802.55706      955.23698     -1959.2169      1477.9509    
    300000   252.10916     -2908.3461     -782.47566      949.82834     -1958.5177      1488.9497    
    301000   257.59358     -2927.0939     -802.7788       969.83831     -1957.2556      1447.7398    
    302000   250.63785     -2899.7897     -761.9217       944.46022     -1955.3295      1740.3636    
    303000   251.32706     -2901.8839     -752.09792      946.97485     -1954.909       1785.8499    
    304000   253.82139     -2913.2274     -791.76691      956.07544     -1957.152       1561.7935    
    305000   256.63998     -2923.7559     -777.15136      966.35908     -1957.3969      1658.9134    
    306000   244.92724     -2882.1533     -755.75961      923.625       -1958.5283      1713.5126    
    307000   242.25033     -2871.3678     -775.45406      913.85829     -1957.5095      1560.1271    
    308000   249.1082      -2896.4598     -780.01738      938.87929     -1957.5805      1607.0018    
    309000   251.51596     -2906.5515     -793.51409      947.66405     -1958.8875      1532.6139    
    310000   254.07115     -2916.9228     -786.36968      956.98669     -1959.9361      1586.2793    
    311000   251.14049     -2907.0572     -765.67232      946.29414     -1960.7631      1678.9566    
    312000   249.0273      -2898.5467     -782.47427      938.58412     -1959.9626      1618.6918    
    313000   255.62418     -2921.4316     -782.54424      962.65291     -1958.7787      1593.4243    
    314000   252.54971     -2909.7064     -787.94051      951.4357      -1958.2707      1542.8492    
    315000   259.8576      -2935.7805     -793.19033      978.09861     -1957.6819      1556.5946    
    316000   251.59009     -2905.4168     -782.10495      947.93449     -1957.4823      1527.5416    
    317000   255.03204     -2921.0965     -772.89242      960.4925      -1960.604       1672.8046    
    318000   255.30642     -2921.0155     -767.34695      961.49356     -1959.5219      1723.8986    
    319000   247.36031     -2890.153      -786.46145      932.50208     -1957.651       1511.42      
    320000   260.36901     -2938.0845     -779.92695      979.96448     -1958.12        1662.4561    
    321000   254.58634     -2915.6345     -771.5174       958.86635     -1956.7682      1628.9086    
    322000   245.54574     -2880.8082     -753.4833       925.8816      -1954.9266      1743.4913    
    323000   256.74441     -2919.8112     -770.92677      966.7401      -1953.0711      1665.0226    
    324000   258.20656     -2924.2059     -772.53555      972.07477     -1952.1312      1675.2879    
    325000   249.81764     -2893.6734     -792.15392      941.4677      -1952.2057      1496.672     
    326000   258.66869     -2924.1488     -780.06501      973.76086     -1950.388       1618.3528    
    327000   251.82302     -2895.5161     -767.03117      948.78434     -1946.7318      1719.4949    
    328000   254.27736     -2906.2675     -774.52055      957.73902     -1948.5284      1665.6478    
    329000   252.13819     -2897.787      -783.96576      949.93425     -1947.8528      1543.6818    
    330000   259.13249     -2923.9409     -784.72987      975.45304     -1948.4879      1585.8013    
    331000   257.01128     -2916.094      -790.24244      967.71376     -1948.3803      1528.1204    
    332000   254.68118     -2905.5489     -770.41792      959.21236     -1946.3365      1706.8358    
    333000   251.36433     -2892.8044     -756.91442      947.1108      -1945.6936      1717.4719    
    334000   259.00277     -2919.4287     -776.35645      974.97976     -1944.449       1660.3234    
    335000   251.82624     -2893.4264     -786.56503      948.7961      -1944.6303      1559.6301    
    336000   260.82618     -2925.822      -782.16168      981.63249     -1944.1895      1598.8822    
    337000   258.32382     -2915.2482     -778.71144      972.5026      -1942.7456      1609.653     
    338000   252.37372     -2892.555      -788.87939      950.79359     -1941.7614      1583.6338    
    339000   258.36057     -2914.5086     -776.61844      972.63668     -1941.872       1633.4229    
    340000   253.54955     -2895.2855     -751.98645      955.08362     -1940.2019      1794.5314    
    341000   252.53932     -2891.7902     -766.56926      951.39779     -1940.3924      1700.6257    
    342000   256.6419      -2904.7848     -778.90042      966.36608     -1938.4187      1589.9091    
    343000   254.94495     -2898.7326     -765.50694      960.17476     -1938.5578      1682.6636    
    344000   252.17567     -2888.7781     -768.42051      950.07098     -1938.7071      1630.2401    
    345000   246.04479     -2867.1166     -766.9682       927.70242     -1939.4142      1611.5664    
    346000   254.63334     -2895.9709     -766.60436      959.03783     -1936.933       1682.7434    
    347000   258.29065     -2908.5026     -775.88851      972.38157     -1936.121       1705.0545    
    348000   255.87601     -2899.0301     -772.28801      963.57173     -1935.4584      1636.0128    
    349000   252.46764     -2885.9633     -782.56925      951.13627     -1934.827       1522.4348    
    350000   256.68861     -2904.3324     -771.38732      966.53652     -1937.7959      1614.6834    
    351000   248.07522     -2872.9181     -768.54614      935.11044     -1937.8077      1656.9869    
    352000   257.25851     -2905.0217     -775.55409      968.61578     -1936.4059      1654.7605    
    353000   250.60918     -2879.7797     -764.69543      944.35563     -1935.424       1654.8343    
    354000   258.87427     -2909.2217     -779.90305      974.51092     -1934.7107      1643.1485    
    355000   255.97245     -2898.0637     -772.5036       963.92358     -1934.1402      1599.15      
    356000   253.19067     -2887.2591     -773.55823      953.77423     -1933.4848      1580.8979    
    357000   254.64716     -2891.3883     -767.08361      959.08827     -1932.3         1682.9755    
    358000   258.24315     -2904.494      -777.719        972.20826     -1932.2857      1612.2536    
    359000   259.70207     -2908.6421     -787.0034       977.53116     -1931.111       1555.6674    
    360000   261.12295     -2912.0209     -793.48518      982.71526     -1929.3056      1499.4538    
    361000   251.09707     -2876.284      -767.97212      946.13571     -1930.1483      1603.7315    
    362000   265.05909     -2928.3906     -781.31883      997.07629     -1931.3144      1655.1989    
    363000   251.66765     -2878.168      -768.04554      948.21748     -1929.9505      1645.5004    
    364000   252.74417     -2881.6655     -776.34671      952.14519     -1929.5203      1557.0313    
    365000   257.71332     -2899.9793     -770.46667      970.27517     -1929.7041      1699.0381    
    366000   251.85108     -2877.8255     -774.94108      948.88673     -1928.9388      1598.5977    
    367000   254.65118     -2887.4835     -772.30361      959.10293     -1928.3806      1617.6197    
    368000   251.90054     -2877.2296     -780.0487       949.06719     -1928.1625      1610.5498    
    369000   249.80412     -2867.7517     -764.85011      941.41836     -1926.3333      1646.4571    
    370000   256.11377     -2890.0457     -781.26994      964.43919     -1925.6065      1632.3292    
    371000   253.57692     -2881.3331     -778.90123      955.18347     -1926.1497      1575.6935    
    372000   258.35766     -2898.9226     -781.97696      972.62606     -1926.2966      1565.6883    
    373000   262.42689     -2912.7609     -778.6507       987.47269     -1925.2882      1631.6506    
    374000   257.73684     -2895.6313     -778.77864      970.36098     -1925.2703      1624.0076    
    375000   252.1566      -2875.3532     -767.7706       950.00141     -1925.3518      1671.5009    
    376000   255.95452     -2889.5203     -769.74871      963.85818     -1925.6621      1671.5211    
    377000   262.08994     -2913.1202     -773.38869      986.24333     -1926.8769      1660.3807    
    378000   257.45853     -2896.2658     -777.17427      969.34557     -1926.9202      1622.0265    
    379000   249.72148     -2869.0599     -761.04911      941.11685     -1927.943       1696.7222    
    380000   255.32244     -2886.9927     -782.55447      961.55203     -1925.4407      1615.7025    
    381000   253.86499     -2880.2358     -762.71861      956.2345      -1924.0013      1711.9715    
    382000   260.38125     -2901.068      -768.85455      980.00917     -1921.0588      1732.9572    
    383000   253.71035     -2876.0283     -771.07215      955.67028     -1920.358       1633.3975    
    384000   258.80955     -2893.304      -783.09684      974.27477     -1919.0292      1588.156     
    385000   258.69159     -2894.5541     -780.69031      973.84442     -1920.7097      1670.0645    
    386000   256.0648      -2883.0701     -772.37473      964.26052     -1918.8096      1650.6675    
    387000   256.67127     -2884.0093     -755.73238      966.47325     -1917.536       1786.469     
    388000   263.76452     -2910.3546     -769.2084       992.35306     -1918.0016      1705.9732    
    389000   261.27219     -2901.0558     -769.28327      983.25977     -1917.796       1657.0271    
    390000   266.25075     -2919.1622     -793.03512      1001.4241     -1917.7381      1573.1033    
    391000   251.14378     -2866.5103     -776.62563      946.30614     -1920.2042      1588.58      
    392000   257.11556     -2888.1653     -777.67852      968.09422     -1920.0711      1630.5048    
    393000   256.86809     -2888.7858     -780.06004      967.19134     -1921.5945      1598.8411    
    394000   257.7605      -2892.7129     -759.88627      970.44729     -1922.2656      1718.0992    
    395000   260.78877     -2903.6799     -770.91708      981.496       -1922.1839      1644.9821    
    396000   251.80882     -2870.9871     -761.2512       948.73252     -1922.2546      1657.322     
    397000   258.46193     -2896.6291     -779.67288      973.00647     -1923.6226      1605.5208    
    398000   258.18726     -2896.4758     -771.27387      972.00436     -1924.4714      1679.2867    
    399000   256.30576     -2889.8938     -771.04412      965.13969     -1924.7541      1664.0264    
    400000   253.12609     -2877.2161     -791.5146       953.53861     -1923.6775      1474.8376    
    401000   248.64322     -2862.1629     -768.54971      937.18279     -1924.9801      1657.8286    
    402000   259.21829     -2901.9851     -783.1522       975.76606     -1926.2191      1581.9382    
    403000   255.21536     -2888.0582     -783.72119      961.16134     -1926.8968      1628.4374    
    404000   262.61245     -2918.5376     -778.07111      988.14971     -1930.3879      1697.5547    
    405000   259.97899     -2909.0708     -793.33681      978.54148     -1930.5293      1552.8093    
    406000   253.91177     -2887.1786     -768.523        956.40519     -1930.7734      1607.042     
    407000   257.76338     -2904.5834     -782.72424      970.45782     -1934.1256      1550.7499    
    408000   257.55197     -2901.0309     -766.08344      969.68649     -1931.3444      1669.4144    
    409000   264.29593     -2925.6832     -791.91194      994.29189     -1931.3913      1577.5746    
    410000   262.2846      -2916.8632     -775.88998      986.95356     -1929.9097      1679.2667    
    411000   253.19008     -2885.8573     -767.91603      953.7721      -1932.0852      1675.5717    
    412000   256.33303     -2898.552      -778.79443      965.23918     -1933.3128      1594.9278    
    413000   254.98346     -2894.07       -767.40764      960.31524     -1933.7547      1671.6229    
    414000   259.8664      -2910.9951     -770.19997      978.13073     -1932.8644      1673.407     
    415000   248.85973     -2868.6879     -796.31773      937.97275     -1930.7152      1433.9938    
    416000   251.24601     -2875.7059     -776.06949      946.67913     -1929.0268      1571.0598    
    417000   255.65734     -2891.756      -784.39547      962.77389     -1928.9821      1598.0183    
    418000   254.85395     -2888.6802     -783.89217      959.84272     -1928.8374      1581.8856    
    419000   260.0599      -2908.1508     -780.65051      978.83671     -1929.3141      1577.0922    
    420000   250.77071     -2875.0767     -742.9484       944.94499     -1930.1317      1814.4529    
    421000   256.52982     -2895.1918     -785.82508      965.95716     -1929.2347      1530.6521    
    422000   258.17547     -2900.6199     -766.221        971.96135     -1928.6586      1677.6976    
    423000   252.13449     -2877.9241     -751.84571      949.92074     -1928.0034      1759.0501    
    424000   256.42165     -2893.2116     -777.1217       965.56251     -1927.6491      1568.0764    
    425000   259.76527     -2905.6538     -779.10558      977.76172     -1927.8921      1629.9228    
    426000   249.91077     -2867.8213     -764.50963      941.80747     -1926.0138      1601.5364    
    427000   251.20753     -2872.6435     -776.77364      946.53873     -1926.1048      1598.52      
    428000   260.29914     -2904.927      -787.71473      979.70956     -1925.2174      1538.1671    
    429000   257.40224     -2892.8817     -783.28958      969.14019     -1923.7415      1577.749     
    430000   260.88896     -2904.9773     -773.11516      981.86152     -1923.1158      1658.9089    
    431000   263.77091     -2914.4104     -763.56232      992.37638     -1922.0341      1692.647     
    432000   265.30349     -2920.654      -782.0917       997.96798     -1922.686       1604.3067    
    433000   252.59903     -2872.7005     -768.3057       951.61562     -1921.0849      1641.7833    
    434000   252.267       -2874.264      -767.55902      950.4042      -1923.8599      1627.7674    
    435000   262.50333     -2912.1692     -777.03105      987.75158     -1924.4176      1665.1076    
    436000   253.73821     -2879.0452     -772.95968      955.77192     -1923.2733      1579.0998    
    437000   249.02743     -2862.5288     -765.55594      938.58459     -1923.9443      1676.312     
    438000   258.96736     -2899.6552     -762.899        974.85054     -1924.8047      1709.6787    
    439000   259.29096     -2902.4284     -758.2438       976.03121     -1926.3972      1720.8455    
    440000   253.08676     -2879.2581     -781.86855      953.39511     -1925.863       1581.4345    
    441000   262.57467     -2912.324      -781.23233      988.01187     -1924.3122      1633.0872    
    442000   254.03324     -2883.4231     -760.40764      956.84836     -1926.5748      1747.7265    
    443000   257.52761     -2897.4755     -771.22578      969.59762     -1927.8779      1635.6554    
    444000   261.84233     -2913.5965     -778.14363      985.33993     -1928.2566      1602.2574    
    445000   262.8268      -2919.1208     -784.19099      988.93176     -1930.189       1611.4821    
    446000   262.25584     -2917.7404     -773.66192      986.84861     -1930.8917      1690.1633    
    447000   245.09335     -2856.3617     -770.60598      924.23106     -1932.1306      1566.3245    
    448000   255.57911     -2894.813      -763.03076      962.48848     -1932.3245      1721.5642    
    449000   256.95563     -2902.0497     -772.72455      967.51074     -1934.539       1635.2188    
    450000   251.55588     -2880.7569     -776.17006      947.80969     -1932.9472      1617.8951    
    451000   252.51479     -2884.481      -770.14628      951.30828     -1933.1727      1646.1328    
    452000   254.03518     -2890.1053     -764.19292      956.85544     -1933.2499      1716.5793    
    453000   256.25139     -2899.4059     -773.39143      964.9413      -1934.4646      1664.7456    
    454000   254.95612     -2894.5524     -799.36501      960.21549     -1934.3369      1433.8236    
    455000   248.43122     -2871.2647     -763.08999      936.40932     -1934.8554      1601.9095    
    456000   256.62785     -2901.8788     -777.69394      966.31483     -1935.5639      1628.0524    
    457000   255.58325     -2898.7295     -782.08669      962.50358     -1936.2259      1610.4948    
    458000   253.6482      -2890.6511     -771.3516       955.44353     -1935.2076      1668.5439    
    459000   252.61144     -2885.5354     -778.09466      951.6609      -1933.8745      1585.6971    
    460000   258.56092     -2907.2367     -786.94474      973.36765     -1933.8691      1584.3853    
    461000   254.95991     -2892.3107     -777.70942      960.22933     -1932.0813      1604.8027    
    462000   254.66919     -2889.4894     -750.92044      959.16863     -1930.3208      1758.9603    
    463000   258.51984     -2902.2811     -768.58983      973.21778     -1929.0633      1678.4657    
    464000   251.73296     -2878.9685     -780.89483      948.45575     -1930.5128      1595.5721    
    465000   257.4354      -2900.3518     -761.65859      969.26118     -1931.0906      1697.9741    
    466000   257.46962     -2902.0612     -770.63953      969.38603     -1932.6752      1724.6073    
    467000   247.23894     -2862.9532     -761.82458      932.05926     -1930.894       1715.6762    
    468000   251.59514     -2880.0292     -765.82753      947.95291     -1932.0763      1673.2211    
    469000   255.1235      -2891.6126     -788.23533      960.82618     -1930.7864      1603.8563    
    470000   256.68782     -2895.6467     -785.99273      966.53363     -1929.1131      1590.3437    
    471000   253.39726     -2882.2991     -773.07285      954.52798     -1927.7711      1637.2358    
    472000   257.11212     -2894.4363     -778.67016      968.08171     -1926.3545      1616.4962    
    473000   254.69238     -2884.3894     -760.24753      959.25324     -1925.1362      1739.0903    
    474000   260.51224     -2906.3365     -763.36982      980.48708     -1925.8495      1763.7686    
    475000   253.22768     -2880.6434     -797.68654      953.90928     -1926.7341      1479.4024    
    476000   264.34502     -2919.6309     -774.93982      994.471       -1925.1599      1660.7094    
    477000   252.64505     -2878.7793     -762.73746      951.78353     -1926.9958      1680.5269    
    478000   259.38598     -2903.7408     -765.67017      976.37789     -1927.3629      1751.6687    
    479000   256.76473     -2894.744      -777.31608      966.81422     -1927.9298      1613.3503    
    480000   254.13572     -2886.5168     -779.08075      957.22226     -1929.2945      1624.8232    
    481000   255.91864     -2893.0542     -778.32897      963.72727     -1929.327       1643.8004    
    482000   251.61816     -2877.6069     -761.64713      948.03692     -1929.57        1732.3912    
    483000   253.61445     -2882.3455     -782.22726      955.32041     -1927.0251      1533.6635    
    484000   257.92483     -2897.0258     -770.44652      971.04688     -1925.9789      1703.2538    
    485000   252.68395     -2878.3775     -769.11492      951.92546     -1926.452       1646.0055    
    486000   257.31083     -2894.9982     -785.41321      968.80669     -1926.1915      1558.5148    
    487000   256.5276      -2891.8691     -760.66595      965.94905     -1925.9201      1698.3767    
    488000   254.88939     -2886.1963     -768.5028       959.97202     -1926.2243      1696.6412    
    489000   254.5874      -2883.5587     -759.70571      958.87024     -1924.6885      1692.5424    
    490000   250.3134      -2868.8561     -771.41529      943.27647     -1925.5797      1593.1884    
    491000   250.30673     -2869.2646     -753.69698      943.25216     -1926.0124      1773.815     
    492000   257.43661     -2895.9465     -769.66827      969.26561     -1926.6809      1713.4029    
    493000   251.98591     -2877.3976     -747.75156      949.37867     -1928.019       1783.7602    
    494000   253.6738      -2883.5122     -787.43995      955.53695     -1927.9752      1480.8993    
    495000   259.28467     -2905.8102     -769.28824      976.00826     -1929.802       1653.4869    
    496000   253.87175     -2884.9748     -761.42025      956.25915     -1928.7157      1703.7086    
    497000   264.0882      -2922.1291     -781.05547      993.53399     -1928.5952      1610.2985    
    498000   258.24821     -2903.4        -779.29826      972.22673     -1931.1733      1587.5718    
    499000   258.06296     -2901.7987     -776.21171      971.55085     -1930.2478      1654.4969    
    500000   265.09107     -2925.5116     -782.73717      997.19298     -1928.3187      1622.3226    
    501000   252.45916     -2879.2628     -781.18152      951.1053      -1928.1575      1534.9778    
    502000   262.07513     -2912.492      -784.79999      986.18928     -1926.3027      1608.0451    
    503000   256.73199     -2892.1618     -781.77779      966.69478     -1925.467       1646.0302    
    504000   253.0541      -2879.8718     -787.03387      953.27594     -1926.5959      1547.189     
    505000   256.60127     -2891.0946     -771.32801      966.21784     -1924.8767      1629.8185    
    506000   251.43923     -2873.8184     -779.27011      947.3841      -1926.4343      1538.9797    
    507000   253.30599     -2880.4298     -763.9221       954.19498     -1926.2349      1718.7611    
    508000   261.97529     -2912.6804     -775.50226      985.82503     -1926.8554      1650.4428    
    509000   261.91077     -2914.1327     -788.06634      985.58961     -1928.5431      1539.861     
    510000   258.51941     -2904.8497     -783.5493       973.21619     -1931.6336      1553.6487    
    511000   244.96915     -2855.5063     -757.35244      923.77794     -1931.7284      1745.88      
    512000   262.06021     -2916.4241     -787.45214      986.13485     -1930.2893      1557.1441    
    513000   257.41202     -2900.0879     -791.3527       969.17587     -1930.9121      1537.5475    
    514000   253.22105     -2886.2631     -758.56588      953.88507     -1932.3781      1774.3231    
    515000   245.13976     -2858.3466     -761.69401      924.40041     -1933.9462      1647.9449    
    516000   256.8235      -2899.6239     -768.96199      967.02867     -1932.5952      1646.644     
    517000   259.69794     -2911.0285     -773.73778      977.5161      -1933.5124      1605.1222    
    518000   254.56952     -2894.8457     -766.66512      958.80498     -1936.0407      1727.654     
    519000   255.8105      -2898.7943     -780.84651      963.3327      -1935.4616      1597.5062    
    520000   256.64137     -2901.1889     -775.99464      966.36415     -1934.8248      1610.9561    
    521000   256.09225     -2899.3018     -775.81752      964.36068     -1934.9411      1601.4006    
    522000   253.1557      -2887.2        -777.58531      953.64664     -1933.5534      1595.5782    
    523000   255.4125      -2895.9417     -780.6207       961.88059     -1934.0611      1602.6688    
    524000   247.6362      -2867.3801     -751.31057      933.5087      -1933.8714      1801.3547    
    525000   254.80214     -2891.9082     -757.37752      959.65368     -1932.2545      1698.3751    
    526000   258.4429      -2904.7409     -783.14688      972.93704     -1931.8039      1568.4467    
    527000   248.40574     -2869.0287     -793.42933      936.31635     -1932.7124      1434.3181    
    528000   249.13097     -2873.9457     -778.53956      938.96236     -1934.9834      1539.9823    
    529000   249.12435     -2873.1644     -754.30542      938.93823     -1934.2262      1713.4802    
    530000   253.54029     -2889.5806     -772.39831      955.04982     -1934.5308      1629.3737    
    531000   246.57606     -2865.1597     -760.02624      929.64075     -1935.5189      1683.6791    
    532000   252.39666     -2886.5429     -768.18802      950.87727     -1935.6656      1614.3288    
    533000   254.69566     -2896.2963     -783.95192      959.26519     -1937.0311      1607.8885    
    534000   252.7791      -2888.3974     -788.29379      952.27262     -1936.1247      1507.4761    
    535000   248.94751     -2872.7772     -757.64127      938.29303     -1934.4842      1717.0744    
    536000   252.93281     -2888.0739     -776.56217      952.83343     -1935.2404      1614.9772    
    537000   258.86594     -2907.4812     -786.38756      974.48053     -1933.0007      1563.7156    
    538000   254.17193     -2890.8192     -767.46662      957.35438     -1933.4648      1637.3075    
    539000   259.46035     -2911.4147     -794.16897      976.64925     -1934.7655      1472.0492    
    540000   251.31465     -2883.7605     -769.54297      946.92954     -1936.8309      1621.6648    
    541000   258.02566     -2910.1112     -782.37351      971.41476     -1938.6964      1569.6879    
    542000   250.29032     -2879.3113     -774.48576      943.19229     -1936.1191      1577.5065    
    543000   257.16193     -2903.0249     -768.6586       968.26344     -1934.7615      1614.4862    
    544000   259.44539     -2911.6142     -763.60151      976.59465     -1935.0195      1710.1503    
    545000   247.02046     -2865.7135     -753.58878      931.26216     -1934.4514      1709.239     
    546000   250.47866     -2875.3809     -783.19398      943.87944     -1931.5014      1484.6914    
    547000   255.0973      -2892.8063     -769.92611      960.73058     -1932.0757      1629.9062    
    548000   257.51008     -2902.6159     -790.13454      969.53365     -1933.0823      1507.2115    
    549000   249.91139     -2875.7929     -761.22323      941.80973     -1933.9831      1735.7224    
    550000   251.95392     -2881.8768     -766.45231      949.26193     -1932.6148      1619.4425    
    551000   254.68977     -2889.8747     -773.11003      959.24372     -1930.631       1614.7345    
    552000   251.46144     -2877.3483     -761.4186       947.46511     -1929.8832      1682.9074    
    553000   256.46335     -2897.8155     -771.86234      965.71465     -1932.1009      1656.281     
    554000   257.67478     -2903.151      -779.03133      970.13457     -1933.0164      1613.1264    
    555000   255.30848     -2895.2815     -766.30066      961.5011      -1933.7804      1651.103     
    556000   250.13483     -2875.1898     -758.03454      942.62495     -1932.5648      1709.9924    
    557000   254.83003     -2894.1363     -773.10672      959.75546     -1934.3808      1650.8345    
    558000   254.15718     -2892.3048     -776.73239      957.30056     -1935.0043      1610.0026    
    559000   256.24355     -2901.2525     -765.56054      964.91272     -1936.3398      1695.2908    
    560000   250.95949     -2883.2655     -759.93939      945.63373     -1937.6318      1660.6208    
    561000   259.04186     -2912.2153     -754.84109      975.12238     -1937.0929      1810.1121    
    562000   253.57527     -2893.1613     -782.04102      955.17746     -1937.9838      1522.0383    
    563000   249.60915     -2882.0251     -770.85519      940.70701     -1941.3181      1609.536     
    564000   252.0099      -2893.0125     -770.74603      949.4662      -1943.5463      1630.3346    
    565000   254.15974     -2902.1733     -799.18422      957.30988     -1944.8635      1488.4576    
    566000   249.67514     -2885.8347     -771.38391      940.94779     -1944.8869      1611.6172    
    567000   251.70778     -2893.2062     -780.37259      948.36389     -1944.8423      1606.3725    
    568000   259.8401      -2923.0621     -777.77281      978.03477     -1945.0274      1656.0553    
    569000   252.3276      -2896.0951     -770.46456      950.62531     -1945.4698      1664.8245    
    570000   259.1289      -2922.8721     -772.91904      975.43993     -1947.4322      1700.2833    
    571000   244.30064     -2868.2851     -779.30644      921.33886     -1946.9462      1572.7888    
    572000   242.88569     -2861.1941     -763.25412      916.17641     -1945.0177      1641.8574    
    573000   258.78035     -2919.9287     -772.38593      974.16826     -1945.7604      1730.3107    
    574000   248.45793     -2881.9874     -751.21464      936.50678     -1945.4806      1798.0526    
    575000   248.47172     -2883.2757     -770.98518      936.55709     -1946.7186      1562.7283    
    576000   258.80249     -2920.0388     -779.46468      974.24902     -1945.7898      1634.6448    
    577000   248.21038     -2882.7579     -798.60433      935.6036      -1947.1543      1491.7378    
    578000   248.41459     -2884.0973     -774.79225      936.34866     -1947.7486      1611.0083    
    579000   262.89878     -2934.5431     -778.67264      989.19439     -1945.3487      1614.3437    
    580000   250.50135     -2886.2706     -774.25578      943.96221     -1942.3084      1624.034     
    581000   246.24857     -2870.3882     -793.16356      928.44591     -1941.9423      1462.9059    
    582000   255.00321     -2901.973      -770.63958      960.38729     -1941.5857      1714.3298    
    583000   261.10661     -2921.8618     -768.2351       982.65562     -1939.2061      1672.3932    
    584000   257.04908     -2907.4223     -773.13511      967.85167     -1939.5706      1596.3133    
    585000   262.52364     -2926.4737     -788.98292      987.82568     -1938.6481      1590.9881    
    586000   255.48945     -2900.2221     -769.51846      962.16135     -1938.0608      1669.4372    
    587000   257.66726     -2907.1518     -778.95833      970.10712     -1937.0447      1609.8664    
    588000   252.9673      -2888.7431     -777.45062      952.95927     -1935.7838      1540.1496    
    589000   256.97425     -2902.1108     -791.06606      967.57866     -1934.5322      1504.1208    
    590000   258.10099     -2905.7347     -787.64558      971.68958     -1934.0451      1534.4389    
    591000   258.09125     -2903.6724     -788.15709      971.65405     -1932.0183      1618.4746    
    592000   253.8021      -2887.9326     -748.53828      956.00505     -1931.9276      1752.4573    
    593000   254.349       -2890.3551     -769.88605      958.0004      -1932.3547      1650.2095    
    594000   261.27201     -2914.7976     -776.02989      983.25909     -1931.5385      1626.6542    
    595000   257.85508     -2902.0429     -778.54248      970.79238     -1931.2505      1612.4777    
    596000   254.36959     -2890.3449     -757.80451      958.07553     -1932.2693      1706.8041    
    597000   253.83366     -2888.3016     -774.62332      956.12019     -1932.1814      1579.8439    
    598000   257.77868     -2905.7168     -769.82757      970.51364     -1935.2031      1648.5734    
    599000   259.24784     -2911.2352     -773.47973      975.87388     -1935.3613      1620.8394    
    600000   259.45967     -2912.3632     -786.52701      976.64676     -1935.7164      1555.3095    
    601000   255.14659     -2896.8152     -787.14784      960.91042     -1935.9048      1576.7368    
    602000   249.19427     -2875.716      -763.1784       939.19334     -1936.5226      1692.0057    
    603000   256.3272      -2901.084      -765.58979      965.2179      -1935.8661      1700.868     
    604000   257.43685     -2904.345      -793.41255      969.26647     -1935.0785      1545.9572    
    605000   255.02289     -2895.3715     -764.697        960.45911     -1934.9124      1694.5925    
    606000   262.1773      -2920.2084     -774.43448      986.56204     -1933.6463      1700.1598    
    607000   250.89562     -2877.4888     -759.24239      945.4007      -1932.0881      1712.6181    
    608000   261.70171     -2915.3226     -764.4737       984.82688     -1930.4957      1756.7962    
    609000   257.22561     -2896.2957     -783.76224      968.49575     -1927.7999      1594.9903    
    610000   250.79098     -2873.8391     -770.57835      945.01894     -1928.8202      1640.4381    
    611000   251.83591     -2878.4243     -765.1607       948.83137     -1929.5929      1735.9289    
    612000   260.15748     -2909.6291     -759.28843      979.1927      -1930.4364      1717.3061    
    613000   258.47297     -2902.2444     -763.3237       973.04676     -1929.1976      1695.008     
    614000   253.96949     -2885.1834     -775.54205      956.61576     -1928.5677      1636.9554    
    615000   245.90422     -2856.5325     -764.37629      927.18956     -1929.343       1667.1748    
    616000   259.1209      -2905.4062     -770.48204      975.41076     -1929.9954      1650.7425    
    617000   258.02512     -2901.5026     -781.43564      971.41278     -1930.0898      1660.782     
    618000   244.98112     -2854.0889     -768.0924       923.8216      -1930.2673      1659.2178    
    619000   251.46469     -2876.6565     -766.39248      947.47697     -1929.1796      1635.2523    
    620000   258.47651     -2902.2684     -771.06556      973.0597      -1929.2087      1787.6629    
    621000   256.07391     -2894.4327     -770.40536      964.29379     -1930.1389      1727.4227    
    622000   251.12451     -2876.0303     -762.17128      946.23584     -1929.7945      1717.8915    
    623000   252.86082     -2882.159      -769.0199       952.57078     -1929.5882      1650.4169    
    624000   260.87549     -2911.0067     -776.10092      981.81237     -1929.1944      1628.3801    
    625000   251.71434     -2877.7617     -775.03268      948.38782     -1929.3739      1624.7068    
    626000   256.76442     -2895.6193     -770.4982       966.81311     -1928.8062      1652.7218    
    627000   250.2066      -2869.7181     -752.30744      942.88684     -1926.8313      1763.2508    
    628000   252.65522     -2877.5172     -751.9456       951.82063     -1925.6965      1747.4136    
    629000   256.72192     -2890.2323     -771.87162      966.65805     -1923.5742      1679.1697    
    630000   257.15723     -2891.3023     -772.38449      968.24628     -1923.056       1704.9556    
    631000   254.82675     -2886.6161     -799.54635      959.74349     -1926.8726      1477.1416    
    632000   260.10166     -2907.2048     -756.63235      978.98906     -1928.2157      1730.3328    
    633000   262.39955     -2914.1372     -770.89984      987.37295     -1926.7642      1706.9728    
    634000   256.14981     -2889.3306     -763.98864      964.5707      -1924.7599      1649.3692    
    635000   254.47047     -2883.4713     -789.75534      958.44358     -1925.0277      1535.1795    
    636000   257.69536     -2896.249      -772.77449      970.20963     -1926.0394      1619.3731    
    637000   258.25316     -2898.9276     -787.36076      972.24477     -1926.6829      1561.0687    
    638000   253.48875     -2879.9153     -798.55378      954.86178     -1925.0535      1457.795     
    639000   257.62187     -2892.5607     -791.26867      969.94152     -1922.6191      1479.0984    
    640000   257.3344      -2891.7428     -779.14543      968.89269     -1922.8501      1599.3383    
    641000   259.42406     -2898.3213     -774.98092      976.51684     -1921.8045      1671.6792    
    642000   254.99425     -2882.4489     -768.16639      960.35462     -1922.0943      1578.2298    
    643000   255.46368     -2884.8899     -769.82838      962.06733     -1922.8226      1678.2746    
    644000   264.48575     -2916.5907     -783.60954      994.98445     -1921.6063      1571.3472    
    645000   253.6595      -2874.2818     -765.96572      955.48477     -1918.797       1674.4195    
    646000   259.16119     -2893.752      -786.62639      975.55773     -1918.1943      1537.5259    
    647000   258.13905     -2890.4219     -763.15915      971.82846     -1918.5934      1704.1241    
    648000   249.38475     -2859.0858     -770.01837      939.88829     -1919.1975      1630.3549    
    649000   245.50835     -2847.2645     -749.58687      925.74521     -1921.5193      1701.2396    
    650000   255.84808     -2885.1332     -779.56067      963.46983     -1921.6634      1629.3973    
    651000   255.57459     -2883.873      -762.95493      962.47199     -1921.401       1737.5736    
    652000   266.81376     -2922.3462     -764.30638      1003.4782     -1918.868       1753.969     
    653000   251.48283     -2866.8798     -768.20405      947.54317     -1919.3366      1644.0136    
    654000   256.88254     -2885.0792     -757.2517       967.24405     -1917.8351      1713.8371    
    655000   252.71277     -2869.8918     -765.24596      952.03062     -1917.8612      1645.4099    
    656000   261.72001     -2903.2933     -784.58292      984.89364     -1918.3997      1589.8035    
    657000   255.71772     -2882.0747     -756.24983      962.9942      -1919.0806      1803.0342    
    658000   252.48371     -2870.341      -745.78714      951.19489     -1919.1461      1795.1924    
    659000   261.06219     -2899.6988     -760.94173      982.49357     -1917.2052      1671.0071    
    660000   258.30735     -2888.7228     -744.5451       972.4425      -1916.2803      1863.6502    
    661000   264.37649     -2913.42       -779.14293      994.58581     -1918.8342      1616.3712    
    662000   259.36885     -2895.4421     -778.18291      976.31539     -1919.1267      1605.651     
    663000   244.55829     -2841.1088     -767.79325      922.2789      -1918.8299      1651.0514    
    664000   255.4855      -2881.6016     -765.93916      962.14693     -1919.4547      1721.5536    
    665000   256.6879      -2888.0685     -764.81514      966.53393     -1921.5346      1677.2777    
    666000   260.26356     -2900.3661     -781.27082      979.57974     -1920.7864      1559.2488    
    667000   256.97816     -2887.8537     -779.1902       967.59292     -1920.2608      1719.1809    
    668000   251.93629     -2869.0446     -782.68966      949.19762     -1919.847       1592.7632    
    669000   256.05955     -2885.7748     -775.33737      964.24138     -1921.5334      1605.1344    
    670000   259.45527     -2902.8063     -751.76018      976.63071     -1926.1756      1775.6034    
    671000   258.98554     -2899.1762     -772.0274       974.91689     -1924.2593      1601.4963    
    672000   261.97466     -2911.132      -790.11355      985.82271     -1925.3092      1549.2411    
    673000   255.32579     -2885.9842     -774.66386      961.56425     -1924.4199      1627.9871    
    674000   256.8378      -2890.3412     -790.47231      967.08083     -1923.2604      1496.2305    
    675000   249.26751     -2864.7017     -762.32121      939.46052     -1925.2412      1663.2393    
    676000   251.96727     -2875.6428     -772.78558      949.31065     -1926.3321      1544.5765    
    677000   251.29139     -2872.6414     -774.97322      946.8447      -1925.7967      1566.6645    
    678000   254.39874     -2882.1248     -773.5086       958.1819      -1923.9429      1595.5606    
    679000   258.29172     -2894.8857     -782.62705      972.38548     -1922.5002      1580.5098    
    680000   257.60662     -2893.7348     -776.43833      969.88588     -1923.8489      1574.1124    
    681000   258.91649     -2897.8247     -786.65753      974.66496     -1923.1598      1602.7434    
    682000   258.61095     -2893.5222     -764.9285       973.55019     -1919.9721      1699.4105    
    683000   258.12117     -2891.7577     -781.24302      971.76323     -1919.9944      1636.9879    
    684000   262.6408      -2908.7635     -781.70421      988.25313     -1920.5104      1598.4002    
    685000   251.35719     -2865.9564     -781.19298      947.08475     -1918.8717      1520.7822    
    686000   246.52178     -2849.5808     -754.75457      929.44272     -1920.1381      1794.3485    
    687000   248.73971     -2857.629      -750.85473      937.53484     -1920.0941      1691.4246    
    688000   251.12139     -2866.2835     -770.69788      946.22446     -1920.059       1663.9677    
    689000   259.75287     -2899.0946     -784.60811      977.7165      -1921.3781      1580.4504    
    690000   255.1133      -2883.3139     -762.55198      960.78898     -1922.525       1712.7818    
    691000   252.63453     -2872.5532     -759.3316       951.74517     -1920.8081      1683.9056    
    692000   258.40471     -2891.8945     -793.17709      972.79774     -1919.0968      1504.3127    
    693000   256.1989      -2882.1527     -755.51502      964.74981     -1917.4029      1791.8912    
    694000   261.50669     -2901.0135     -774.50838      984.11534     -1916.8982      1659.7524    
    695000   263.71611     -2909.8185     -784.99213      992.17642     -1917.642       1587.9762    
    696000   255.91923     -2882.7714     -769.77225      963.7294      -1919.042       1650.806     
    697000   255.02699     -2878.3665     -772.02692      960.47406     -1917.8924      1586.8114    
    698000   248.48422     -2856.1505     -765.42408      936.60271     -1919.5478      1663.0644    
    699000   247.33665     -2853.6673     -783.49108      932.41578     -1921.2515      1538.4818    
    700000   253.56788     -2875.4089     -776.79458      955.1505      -1920.2584      1608.7115    
    701000   248.61599     -2858.6439     -769.34663      937.08348     -1921.5604      1605.8096    
    702000   263.96188     -2915.2718     -782.53623      993.07312     -1922.1987      1635.0359    
    703000   253.64183     -2879.7072     -772.32203      955.42028     -1924.2869      1566.6346    
    704000   257.10784     -2893.3462     -779.51165      968.06606     -1925.2801      1593.0944    
    705000   253.69491     -2881.7256     -777.50608      955.61396     -1926.1117      1605.0763    
    706000   249.63487     -2867.0502     -774.99641      940.80084     -1926.2493      1559.6526    
    707000   260.0764      -2904.6515     -779.18189      978.89691     -1925.7546      1560.0455    
    708000   254.40217     -2882.8402     -781.02558      958.1944      -1924.6458      1580.3288    
    709000   261.32749     -2910.2218     -773.23455      983.46153     -1926.7603      1673.6321    
    710000   254.0916      -2883.8281     -779.06778      957.06129     -1926.7668      1578.2412    
    711000   252.25272     -2877.185      -748.70552      950.35212     -1926.8329      1799.9716    
    712000   263.29068     -2916.5722     -786.45309      990.62423     -1925.948       1621.9863    
    713000   253.76845     -2883.6896     -779.65907      955.88229     -1927.8073      1570.2826    
    714000   256.38712     -2892.6747     -769.99737      965.43653     -1927.2382      1702.9092    
    715000   250.45582     -2869.997      -760.29341      943.79611     -1926.2009      1682.9695    
    716000   257.31013     -2892.1109     -782.31375      968.80413     -1923.3068      1546.0436    
    717000   260.14675     -2901.7728     -768.92837      979.15356     -1922.6192      1714.064     
    718000   259.6502      -2901.7659     -757.51657      977.3419      -1924.424       1816.7135    
    719000   262.14583     -2912.051      -760.3381       986.44724     -1925.6037      1778.6596    
    720000   260.19439     -2904.9715     -776.44266      979.32739     -1925.6441      1606.4459    
    721000   257.7864      -2896.8091     -758.89938      970.54182     -1926.2673      1819.3242    
    722000   253.42634     -2881.8526     -745.45303      954.63406     -1927.2185      1808.506     
    723000   256.51414     -2896.0755     -800.32923      965.89995     -1930.1756      1449.9881    
    724000   253.94733     -2885.0933     -755.37051      956.53493     -1928.5584      1712.9969    
    725000   257.48152     -2897.0821     -791.97958      969.42945     -1927.6527      1515.0874    
    726000   256.97218     -2895.1141     -772.13047      967.57113     -1927.543       1629.1433    
    727000   254.55088     -2886.2942     -762.75174      958.73697     -1927.5572      1689.2129    
    728000   250.1838      -2870.0199     -763.41966      942.80364     -1927.2163      1681.2937    
    729000   255.28352     -2888.3359     -769.88209      961.41001     -1926.9259      1647.3038    
    730000   256.63034     -2894.1683     -766.53657      966.32393     -1927.8444      1708.7961    
    731000   244.33365     -2851.1798     -784.38349      921.45929     -1929.7205      1543.0741    
    732000   255.00101     -2889.3456     -759.27701      960.37929     -1928.9664      1701.7144    
    733000   254.18722     -2886.899      -756.22103      957.41017     -1929.4888      1701.6503    
    734000   246.27856     -2859.4783     -762.47447      928.55532     -1930.923       1665.0179    
    735000   255.63709     -2895.1284     -774.96502      962.70004     -1932.4284      1673.6597    
    736000   264.95711     -2928.7746     -777.42821      996.70421     -1932.0704      1646.8645    
    737000   251.67438     -2881.165      -766.98727      948.24204     -1932.923       1675.535     
    738000   257.03035     -2900.9068     -783.10287      967.78337     -1933.1234      1501.3985    
    739000   256.9937      -2903.2988     -781.08883      967.64965     -1935.6492      1642.1029    
    740000   256.9269      -2901.7628     -766.51257      967.40593     -1934.3569      1661.5823    
    741000   257.64452     -2904.1155     -775.86606      970.02415     -1934.0913      1650.4287    
    742000   262.63645     -2922.9687     -756.42525      988.23728     -1934.7314      1771.3249    
    743000   259.44752     -2910.5432     -789.87797      976.60243     -1933.9408      1518.9532    
    744000   256.69439     -2901.5806     -778.37242      966.55758     -1935.023       1603.876     
    745000   251.26523     -2883.3805     -764.1531       946.74926     -1936.6313      1659.5327    
    746000   249.80786     -2876.7512     -778.40818      941.432       -1935.3192      1550.4399    
    747000   255.19023     -2897.2715     -785.47418      961.06966     -1936.2018      1526.0767    
    748000   253.2174      -2888.9012     -772.76282      953.87175     -1935.0294      1667.5532    
    749000   254.71336     -2893.8749     -782.75829      959.32979     -1934.5452      1596.2471    
    750000   254.05582     -2893.4214     -768.92319      956.93075     -1936.4906      1681.0369    
    751000   251.74097     -2882.9636     -770.75556      948.48499     -1934.4786      1687.1513    
    752000   260.33216     -2913.0744     -788.18507      979.83005     -1933.2443      1557.8998    
    753000   255.1666      -2896.9054     -783.99187      960.98342     -1935.922       1521.2236    
    754000   260.11706     -2914.1166     -777.72115      979.04524     -1935.0713      1599.0423    
    755000   255.0258      -2895.7226     -792.50575      960.46973     -1935.2529      1496.3258    
    756000   250.69348     -2882.4288     -777.08515      944.66322     -1937.7655      1570.572     
    757000   252.76836     -2890.3226     -759.51815      952.23343     -1938.0892      1692.9707    
    758000   261.66274     -2923.8067     -785.1053       984.68468     -1939.122       1564.9243    
    759000   261.448       -2921.2244     -770.15789      983.90119     -1937.3232      1693.1052    
    760000   258.22244     -2910.0207     -783.78228      972.13271     -1937.888       1607.9146    
    761000   252.45189     -2887.4621     -766.94256      951.07878     -1936.3834      1698.7631    
    762000   252.17913     -2885.5216     -782.42914      950.08361     -1935.438       1549.2055    
    763000   256.68825     -2902.7369     -770.38272      966.5352      -1936.2017      1632.7145    
    764000   251.98023     -2886.4222     -771.44568      949.35792     -1937.0642      1642.5885    
    765000   249.03517     -2874.611      -754.48476      938.61284     -1935.9981      1696.1502    
    766000   262.10716     -2923.7251     -778.1956       986.30616     -1937.4189      1636.6777    
    767000   249.02397     -2876.9361     -780.1002       938.572       -1938.3641      1580.3612    
    768000   256.35795     -2902.8109     -763.59362      965.33011     -1937.4808      1745.1175    
    769000   250.54993     -2880.5582     -760.8277       944.13946     -1936.4187      1757.983     
    770000   255.75927     -2900.3801     -782.61718      963.14582     -1937.2343      1626.8645    
    771000   261.64703     -2920.9258     -751.77098      984.62737     -1936.2984      1769.9514    
    772000   257.66789     -2904.8369     -782.94134      970.10942     -1934.7275      1626.0687    
    773000   250.30176     -2880.5227     -754.52738      943.23403     -1937.2886      1723.2958    
    774000   248.78458     -2873.4415     -770.65061      937.69855     -1935.743       1668.8236    
    775000   254.49321     -2894.3897     -792.61437      958.52657     -1935.8632      1499.6931    
    776000   256.55312     -2899.7526     -762.90123      966.04217     -1933.7104      1701.8694    
    777000   258.18308     -2906.2446     -775.93147      971.98909     -1934.2556      1625.8024    
    778000   253.38282     -2887.9791     -761.19054      954.47531     -1933.5038      1668.4922    
    779000   256.21477     -2897.4817     -783.07242      964.80769     -1932.674       1587.5674    
    780000   256.72736     -2901.0128     -770.22808      966.67788     -1934.3349      1672.38      
    781000   251.6527      -2882.0048     -771.8271       948.16292     -1933.8419      1588.1406    
    782000   251.02045     -2879.4945     -748.19673      945.85615     -1933.6384      1765.1461    
    783000   252.93506     -2888.233      -783.66306      952.84163     -1935.3913      1602.7737    
    784000   255.92871     -2896.0108     -787.96243      963.76402     -1932.2467      1524.2221    
    785000   257.41838     -2899.7051     -768.76111      969.19908     -1930.506       1661.0585    
    786000   255.73168     -2892.08       -757.92052      963.04515     -1929.0349      1754.8732    
    787000   253.51702     -2882.9262     -773.99269      954.96492     -1927.9613      1654.7007    
    788000   260.13841     -2908.3212     -782.96069      979.12316     -1929.198       1571.8567    
    789000   252.13013     -2879.2816     -787.54523      949.90485     -1929.3767      1490.1908    
    790000   260.86259     -2911.4592     -782.5257       981.76532     -1929.6939      1567.6215    
    791000   249.87589     -2872.0393     -747.21451      941.68021     -1930.3591      1812.1797    
    792000   260.38892     -2910.2125     -766.71278      980.03712     -1930.1754      1709.2125    
    793000   259.20053     -2905.9153     -770.25188      975.70129     -1930.214       1681.0024    
    794000   255.8675      -2893.4106     -769.41739      963.54067     -1929.8699      1625.9913    
    795000   264.08836     -2922.4636     -795.93552      993.53459     -1928.929       1503.5456    
    796000   255.77179     -2889.9235     -771.3469       963.1915      -1926.732       1662.1462    
    797000   259.15817     -2902.9902     -785.33176      975.54673     -1927.4435      1547.9256    
    798000   256.13124     -2891.8813     -766.79094      964.50293     -1927.3784      1640.9766    
    799000   251.32486     -2875.2623     -751.9069       946.96681     -1928.2955      1801.7236    
    800000   250.4589      -2872.4659     -759.17806      943.80735     -1928.6586      1696.8883    
    801000   251.96714     -2877.8586     -759.79674      949.31018     -1928.5485      1654.3168    
    802000   255.37147     -2889.8498     -769.00268      961.73092     -1928.1189      1635.3888    
    803000   258.65589     -2902.3281     -766.97348      973.71414     -1928.6139      1622.5586    
    804000   254.03536     -2884.457      -775.67826      956.8561      -1927.6009      1585.1462    
    805000   249.45629     -2867.8711     -766.18036      940.14931     -1927.7218      1638.8299    
    806000   252.80943     -2881.3153     -778.5097       952.38326     -1928.932       1618.4602    
    807000   246.72444     -2861.1905     -768.99867      930.18213     -1931.0084      1562.3482    
    808000   249.65483     -2872.7292     -787.56061      940.87368     -1931.8555      1493.2378    
    809000   262.02292     -2918.2096     -770.27131      985.99879     -1932.2108      1706.433     
    810000   262.66173     -2920.8878     -768.40705      988.32952     -1932.5582      1660.975     
    811000   253.27355     -2887.544      -788.39639      954.07663     -1933.4673      1520.8372    
    812000   253.75716     -2889.7298     -765.72947      955.84108     -1933.8887      1734.902     
    813000   252.45509     -2885.4386     -776.69346      951.09047     -1934.3482      1608.8338    
    814000   259.92262     -2912.3324     -770.85883      978.33585     -1933.9966      1645.7693    
    815000   253.3142      -2888.8298     -783.62599      954.22493     -1934.6048      1529.573     
    816000   257.26056     -2905.3262     -780.52375      968.62326     -1936.703       1575.971     
    817000   251.1991      -2882.9479     -764.39447      946.50797     -1936.4399      1721.9825    
    818000   257.37832     -2904.352      -768.70866      969.05292     -1935.2991      1698.6383    
    819000   259.23297     -2912.2077     -780.70986      975.81965     -1936.388       1626.7038    
    820000   253.05343     -2890.2663     -767.60262      953.2735      -1936.9928      1668.5633    
    821000   248.00618     -2873.4469     -749.56828      934.85858     -1938.5883      1704.507     
    822000   259.72067     -2912.8781     -800.22906      977.59902     -1935.2791      1498.584     
    823000   259.43959     -2910.2906     -784.03833      976.5735      -1933.7171      1576.7321    
    824000   253.33193     -2888.6189     -767.25118      954.28962     -1934.3293      1691.7355    
    825000   263.2049      -2920.5355     -766.28406      990.31126     -1930.2242      1729.2803    
    826000   255.70433     -2893.1515     -779.56814      962.94534     -1930.2061      1623.6522    
    827000   256.27791     -2893.9844     -780.32137      965.03805     -1928.9464      1607.4826    
    828000   258.92741     -2903.4351     -766.82295      974.70479     -1928.7303      1707.1951    
    829000   252.58776     -2882.4362     -787.53766      951.57451     -1930.8617      1501.5316    
    830000   253.56761     -2887.0351     -782.6394       955.14951     -1931.8856      1603.6756    
    831000   261.48786     -2917.1023     -771.945        984.04662     -1933.0556      1645.2003    
    832000   261.66545     -2917.7797     -762.45823      984.69458     -1933.0852      1756.4628    
    833000   256.2628      -2896.0726     -790.25801      964.98293     -1931.0897      1495.6071    
    834000   262.87827     -2919.5411     -770.95758      989.11956     -1930.4216      1734.1839    
    835000   258.11404     -2900.949      -784.35564      971.73721     -1929.2118      1620.5437    
    836000   255.75873     -2891.6078     -773.32134      963.14384     -1928.464       1589.0351    
    837000   255.375       -2888.3643     -748.76179      961.74377     -1926.6205      1813.4881    
    838000   256.9003      -2895.3792     -766.40292      967.30887     -1928.0704      1660.3604    
    839000   261.42467     -2913.3332     -767.92004      983.81608     -1929.5171      1670.5095    
    840000   249.52241     -2869.7512     -774.91796      940.39055     -1929.3606      1637.8929    
    841000   247.52748     -2861.9815     -767.3749       933.112       -1928.8695      1609.0863    
    842000   266.64621     -2932.2451     -779.89873      1002.8669     -1929.3781      1644.5162    
    843000   256.23326     -2896.6284     -759.59584      964.87515     -1931.7532      1697.5821    
    844000   254.36026     -2891.6491     -759.96552      958.04148     -1933.6077      1703.6426    
    845000   254.21359     -2892.7737     -769.62662      957.50638     -1935.2673      1665.7462    
    846000   260.9741      -2917.0603     -767.70662      982.17216     -1934.8881      1678.145     
    847000   256.09351     -2900.4347     -786.24032      964.36529     -1936.0694      1507.4445    
    848000   261.91779     -2923.2468     -773.51787      985.61524     -1937.6315      1734.6308    
    849000   255.57142     -2900.9919     -769.13689      962.46045     -1938.5314      1613.0244    
    850000   252.55638     -2889.8408     -773.75467      951.46001     -1938.3807      1575.4123    
    851000   253.07627     -2892.0995     -767.72852      953.35684     -1938.7427      1605.8486    
    852000   259.09751     -2912.3124     -773.95344      975.3254      -1936.987       1625.2112    
    853000   252.89507     -2890.7452     -799.48206      952.69572     -1938.0494      1412.2928    
    854000   251.06753     -2884.2894     -765.98492      946.02793     -1938.2615      1670.8524    
    855000   246.84696     -2868.8461     -786.17952      930.62913     -1938.2169      1548.1432    
    856000   256.52769     -2902.3436     -773.4957       965.94939     -1936.3942      1652.5325    
    857000   247.25299     -2867.1041     -775.38599      932.11054     -1934.9936      1589.6908    
    858000   257.84901     -2902.0105     -780.20718      970.77025     -1931.2402      1569.3864    
    859000   254.41417     -2888.6903     -774.6296       958.23818     -1930.4521      1629.1911    
    860000   252.54999     -2881.2088     -775.06117      951.43672     -1929.7721      1619.0324    
    861000   255.41813     -2889.2922     -771.25449      961.90116     -1927.391       1647.5655    
    862000   254.64459     -2885.8532     -768.33374      959.07887     -1926.7743      1631.2006    
    863000   260.29193     -2905.9962     -767.36461      979.68325     -1926.3129      1728.0812    
    864000   251.05256     -2873.0329     -781.6775       945.97332     -1927.0596      1554.9845    
    865000   249.08687     -2865.0927     -787.83699      938.80148     -1926.2912      1529.484     
    866000   251.65086     -2874.7225     -766.45372      948.15621     -1926.5662      1619.9234    
    867000   256.76037     -2892.8859     -760.14654      966.79831     -1926.0876      1711.8737    
    868000   256.79802     -2892.2468     -765.29529      966.93569     -1925.3111      1681.7505    
    869000   254.96476     -2885.8133     -756.249        960.24702     -1925.5663      1716.7889    
    870000   257.5341      -2894.8611     -770.0179       969.62129     -1925.2398      1608.1286    
    871000   254.33057     -2885.1688     -790.26671      957.93317     -1927.2356      1504.002     
    872000   255.98363     -2890.6351     -766.55106      963.9644      -1926.6707      1683.5666    
    873000   263.59238     -2916.8448     -785.02357      991.72499     -1925.1198      1565.4312    
    874000   265.53619     -2923.1669     -799.34508      998.81699     -1924.3499      1481.399     
    875000   253.44537     -2879.8912     -756.08756      954.70351     -1925.1877      1754.0575    
    876000   253.38807     -2882.1655     -776.49009      954.49444     -1927.671       1622.3905    
    877000   257.13146     -2896.5818     -766.71362      968.15224     -1928.4295      1690.0623    
    878000   253.8044      -2883.955      -769.51986      956.01343     -1927.9416      1687.5184    
    879000   253.20204     -2880.756      -784.73135      953.81572     -1926.9403      1580.4154    
    880000   262.16404     -2913.3921     -796.83052      986.51367     -1926.8785      1513.6502    
    881000   252.37898     -2877.0623     -752.38444      950.81277     -1926.2496      1797.5673    
    882000   256.95662     -2894.7453     -783.10636      967.51434     -1927.231       1580.5826    
    883000   263.22275     -2918.4489     -782.6354       990.37638     -1928.0725      1616.1734    
    884000   256.06347     -2891.4967     -786.10193      964.25568     -1927.2411      1600.5361    
    885000   259.02173     -2904.6746     -776.81434      975.04892     -1929.6257      1685.5995    
    886000   254.8749      -2889.9037     -771.33335      959.91916     -1929.9846      1705.3239    
    887000   258.22391     -2902.1735     -769.07906      972.13805     -1930.0354      1665.9002    
    888000   258.11452     -2901.8452     -775.14401      971.73896     -1930.1062      1693.0901    
    889000   257.79577     -2900.9662     -773.83084      970.576       -1930.3902      1625.1715    
    890000   260.03355     -2910.0796     -783.17932      978.74055     -1931.339       1639.9467    
    891000   258.37345     -2904.0237     -785.25271      972.68366     -1931.3401      1513.896     
    892000   251.97756     -2878.6414     -781.77966      949.34818     -1929.2932      1543.0835    
    893000   255.1819      -2887.1499     -756.02053      961.03925     -1926.1107      1740.7491    
    894000   261.96287     -2911.3688     -773.05998      985.77971     -1925.5891      1631.6397    
    895000   255.51624     -2889.1499     -780.37045      962.2591      -1926.8908      1545.1427    
    896000   263.47033     -2918.0986     -786.22371      991.27969     -1926.8189      1597.4821    
    897000   256.52732     -2892.6032     -772.63116      965.94803     -1926.6552      1661.57      
    898000   265.784       -2925.9565     -782.26233      999.72115     -1926.2353      1651.2659    
    899000   254.14334     -2883.6244     -788.28583      957.25005     -1926.3744      1542.9554    
    900000   254.87983     -2885.8339     -781.95179      959.93716     -1925.8967      1560.9438    
    901000   257.59203     -2896.0675     -776.33126      969.83265     -1926.2349      1660.0163    
    902000   258.74839     -2900.2561     -776.91154      974.05165     -1926.2045      1625.6319    
    903000   262.21512     -2914.7438     -773.70966      986.70003     -1928.0438      1681.0351    
    904000   257.6136      -2899.3306     -786.9056       969.91135     -1929.4192      1555.0933    
    905000   255.5635      -2891.3862     -790.22992      962.43152     -1928.9547      1477.32      
    906000   259.13451     -2904.8694     -766.96031      975.4604      -1929.409       1699.632     
    907000   258.06774     -2900.3641     -769.71893      971.56828     -1928.7958      1618.4106    
    908000   252.46839     -2883.2676     -795.11612      951.13899     -1932.1286      1507.0457    
    909000   262.44497     -2918.3079     -760.68051      987.53866     -1930.7692      1786.7498    
    910000   251.38276     -2877.1337     -778.26028      947.17805     -1929.9556      1547.1738    
    911000   252.68218     -2880.2881     -773.23728      951.91899     -1928.3691      1600.9161    
    912000   255.64438     -2889.6576     -766.56517      962.72664     -1926.931       1620.8965    
    913000   255.9052      -2892.5991     -775.53777      963.67822     -1928.9209      1685.8155    
    914000   254.90466     -2888.2416     -776.92689      960.02774     -1928.2138      1568.9947    
    915000   259.31698     -2903.8042     -763.82508      976.12614     -1927.6781      1711.9193    
    916000   253.89296     -2885.9199     -765.0886       956.33654     -1929.5833      1646.2019    
    917000   253.52798     -2886.0909     -755.13657      955.00491     -1931.086       1749.704     
    918000   255.47138     -2894.2474     -766.32881      962.09544     -1932.1519      1668.627     
    919000   255.56549     -2895.4602     -770.53738      962.43879     -1933.0214      1665.6828    
    920000   254.20985     -2891.7296     -744.36126      957.49271     -1934.2369      1787.6743    
    921000   257.07718     -2902.9727     -770.79646      967.95419     -1935.0185      1711.0364    
    922000   252.36695     -2887.6051     -764.66747      950.76888     -1936.8362      1698.073     
    923000   247.55137     -2869.1374     -775.4368       933.1992      -1935.9382      1584.5845    
    924000   252.49314     -2887.1352     -789.25179      951.2293      -1935.9059      1458.4397    
    925000   255.86712     -2897.7183     -779.76044      963.5393      -1934.179       1568.6295    
    926000   252.52312     -2884.6591     -767.01672      951.33868     -1933.3204      1647.0037    
    927000   253.40112     -2888.4458     -765.27602      954.54205     -1933.9037      1707.5205    
    928000   263.53192     -2925.3784     -781.80762      991.50441     -1933.874       1620.078     
    929000   255.02757     -2894.5253     -790.05884      960.4762      -1934.0491      1503.7537    
    930000   254.29494     -2892.8902     -780.45865      957.80318     -1935.087       1592.7187    
    931000   256.68835     -2901.8108     -780.18688      966.53555     -1935.2753      1633.8696    
    932000   255.13406     -2896.0408     -782.34531      960.8647      -1935.1761      1582.7249    
    933000   251.97365     -2884.0146     -775.91065      949.33393     -1934.6806      1613.3301    
    934000   244.87261     -2857.8059     -764.06492      923.42571     -1934.3802      1703.0758    
    935000   253.87405     -2893.7265     -782.19324      956.26756     -1937.459       1579.3837    
    936000   253.63539     -2893.8248     -769.71519      955.3968      -1938.428       1691.773     
    937000   258.42082     -2912.1925     -796.12356      972.85648     -1939.336       1522.9046    
    938000   250.23962     -2883.4999     -768.00339      943.00728     -1940.4926      1714.6565    
    939000   253.57009     -2895.1513     -770.96252      955.15856     -1939.9927      1648.0523    
    940000   256.27047     -2904.1896     -768.82483      965.01094     -1939.1787      1686.6548    
    941000   254.47058     -2899.6042     -772.78854      958.44402     -1941.1602      1704.4284    
    942000   250.14852     -2883.4792     -771.52066      942.67492     -1940.8043      1605.3123    
    943000   255.59603     -2903.8213     -762.75841      962.5502      -1941.2711      1730.4406    
    944000   254.47757     -2899.7739     -782.95267      958.46952     -1941.3044      1592.0243    
    945000   249.41649     -2880.7248     -752.93959      940.00408     -1940.7207      1743.4541    
    946000   255.75649     -2903.4387     -778.0726       963.13568     -1940.303       1579.0303    
    947000   252.31532     -2890.4702     -787.00469      950.5805      -1939.8897      1528.0467    
    948000   252.01127     -2886.7249     -779.29355      949.47116     -1937.2538      1582.4371    
    949000   254.78872     -2896.6656     -773.42642      959.60473     -1937.0609      1615.9049    
    950000   254.80555     -2897.5426     -784.53027      959.66613     -1937.8765      1582.2083    
    951000   263.6075      -2929.6727     -769.94725      991.78014     -1937.8926      1717.669     
    952000   251.93598     -2885.9208     -773.38164      949.19646     -1936.7243      1607.2163    
    953000   251.81392     -2887.1643     -770.37505      948.75114     -1938.4132      1644.5902    
    954000   256.00394     -2902.486      -775.6219       964.0385      -1938.4475      1649.0413    
    955000   263.17116     -2927.7242     -778.67249      990.18818     -1937.536       1666.0911    
    956000   261.46341     -2920.2958     -780.8664       983.95743     -1936.3384      1556.1432    
    957000   255.79353     -2899.5616     -776.91333      963.27079     -1936.2908      1580.6982    
    958000   248.05558     -2870.7418     -769.31439      935.03881     -1935.703       1647.1834    
    959000   254.43396     -2894.712      -761.56638      958.31039     -1936.4016      1749.4229    
    960000   248.97755     -2874.4591     -764.56613      938.40261     -1936.0565      1663.3283    
    961000   255.93783     -2898.921      -771.21247      963.79729     -1935.1237      1641.5517    
    962000   254.21775     -2893.334      -763.85942      957.52154     -1935.8125      1747.9063    
    963000   253.11627     -2889.3602     -765.68997      953.50277     -1935.8574      1656.351     
    964000   254.22509     -2892.8554     -772.65289      957.54832     -1935.307       1677.4273    
    965000   250.29381     -2877.8766     -772.30773      943.20502     -1934.6716      1619.6442    
    966000   252.50887     -2885.9523     -768.78972      951.28668     -1934.6656      1653.3807    
    967000   255.61125     -2897.8269     -795.19662      962.60574     -1935.2212      1490.2352    
    968000   258.60373     -2909.832      -782.42654      973.52383     -1936.3082      1659.4218    
    969000   257.79178     -2906.9787     -771.38972      970.56144     -1936.4173      1671.4577    
    970000   251.61261     -2884.7748     -760.7487       948.01667     -1936.7581      1757.6182    
    971000   256.93204     -2905.1572     -763.38288      967.42468     -1937.7325      1702.3761    
    972000   255.27358     -2898.9201     -771.03036      961.37377     -1937.5463      1747.7006    
    973000   256.51275     -2903.3764     -767.84428      965.89488     -1937.4816      1713.413     
    974000   256.60162     -2903.569      -786.61707      966.21911     -1937.3499      1535.3025    
    975000   246.0598      -2865.7728     -773.7141       927.75719     -1938.0157      1615.2455    
    976000   258.80115     -2912.2136     -785.79638      974.24413     -1937.9694      1570.9584    
    977000   262.0937      -2925.1652     -786.98307      986.25705     -1938.9082      1638.1471    
    978000   256.42085     -2903.2249     -778.3817       965.55958     -1937.6653      1582.8222    
    979000   253.67922     -2893.0511     -775.66926      955.55671     -1937.4944      1620.57      
    980000   260.76502     -2918.5873     -769.28407      981.40935     -1937.178       1710.6154    
    981000   255.72874     -2902.2475     -758.28997      963.0344      -1939.2131      1736.329     
    982000   252.97707     -2891.1466     -766.97898      952.9949      -1938.1517      1708.2611    
    983000   254.12593     -2894.558      -769.94557      957.18656     -1937.3714      1678.0065    
    984000   258.00208     -2908.9103     -770.34015      971.32871     -1937.5816      1681.356     
    985000   260.44671     -2917.7267     -770.54612      980.24797     -1937.4787      1694.6622    
    986000   260.04456     -2915.3896     -769.40642      978.78073     -1936.6089      1692.1088    
    987000   249.76698     -2877.9816     -763.80905      941.28287     -1936.6987      1649.0436    
    988000   261.40864     -2921.8183     -788.35877      983.75759     -1938.0607      1510.6553    
    989000   249.05615     -2875.774      -761.55577      938.68938     -1937.0847      1651.1281    
    990000   258.13213     -2908.1907     -782.29749      971.80322     -1936.3875      1630.7717    
    991000   254.04349     -2893.1049     -760.19768      956.88577     -1936.2191      1689.4717    
    992000   256.12722     -2900.555      -773.02523      964.48827     -1936.0667      1657.4135    
    993000   253.03443     -2889.9445     -742.83412      953.20418     -1936.7403      1848.5466    
    994000   254.68153     -2897.5699     -767.09208      959.21366     -1938.3563      1702.2606    
    995000   258.90244     -2911.7631     -774.23891      974.6137      -1937.1494      1551.0388    
    996000   250.18423     -2882.7329     -767.13418      942.80521     -1939.9277      1617.8238    
    997000   256.58273     -2907.0866     -764.6451       966.15019     -1940.9364      1783.9077    
    998000   257.07779     -2907.5861     -767.27321      967.95645     -1939.6296      1685.2324    
    999000   248.93201     -2878.5321     -786.43265      938.23647     -1940.2956      1505.567     
   1000000   257.01107     -2907.7353     -783.60303      967.71299     -1940.0223      1561.6736    
   1001000   255.97976     -2905.6082     -795.51903      963.95024     -1941.6579      1495.3508    
   1002000   254.27428     -2899.3038     -771.72319      957.72779     -1941.5761      1671.0234    
   1003000   259.92152     -2920.5166     -788.94256      978.33183     -1942.1848      1580.5571    
   1004000   245.63408     -2866.0365     -766.68023      926.20393     -1939.8326      1609.5969    
   1005000   254.82387     -2898.1755     -770.526        959.73299     -1938.4425      1636.8394    
   1006000   253.94005     -2894.6609     -772.73128      956.50834     -1938.1526      1634.3799    
   1007000   254.73556     -2898.8624     -776.61423      959.4108      -1939.4516      1601.4522    
   1008000   254.80062     -2898.4276     -776.77695      959.64815     -1938.7794      1650.5228    
   1009000   255.81211     -2901.9141     -768.33654      963.33858     -1938.5756      1657.6495    
   1010000   260.32418     -2919.2191     -783.28846      979.80092     -1939.4181      1571.4117    
   1011000   252.96154     -2893.8362     -780.20998      952.93824     -1940.8979      1599.4634    
   1012000   247.85631     -2871.7436     -758.6965       934.31176     -1937.4318      1664.1013    
   1013000   253.43949     -2889.1223     -787.28712      954.68205     -1934.4402      1519.2035    
   1014000   261.25138     -2915.1335     -779.27883      983.18382     -1931.9496      1603.5737    
   1015000   256.67257     -2899.7229     -768.93788      966.47797     -1933.2449      1703.1806    
   1016000   253.68551     -2887.3899     -766.26172      955.57965     -1931.8103      1731.9111    
   1017000   253.752       -2888.0096     -776.91748      955.82225     -1932.1873      1564.3038    
   1018000   261.06377     -2914.8689     -774.19915      982.49933     -1932.3696      1678.2348    
   1019000   255.92247     -2895.5231     -775.15022      963.74124     -1931.7818      1612.4954    
   1020000   249.14415     -2870.806      -769.11023      939.01046     -1931.7956      1639.361     
   1021000   255.77032     -2892.5136     -780.23079      963.18613     -1929.3274      1556.8185    
   1022000   248.54488     -2865.3893     -774.67207      936.824       -1928.5653      1617.6483    
   1023000   254.36599     -2887.994      -791.87608      958.06241     -1929.9316      1552.1881    
   1024000   261.26125     -2912.4936     -778.11333      983.21983     -1929.2738      1659.7979    
   1025000   260.19365     -2910.0659     -793.60237      979.32469     -1930.7412      1554.5335    
   1026000   258.40688     -2903.5789     -775.5458       972.80562     -1930.7732      1687.5427    
   1027000   257.72347     -2901.3505     -773.32653      970.31221     -1931.0383      1665.3549    
   1028000   249.87801     -2873.2971     -776.74621      941.68796     -1931.6091      1670.5381    
   1029000   253.00239     -2885.19       -781.18207      953.0873      -1932.1027      1601.42      
   1030000   250.56767     -2876.5614     -776.98648      944.20419     -1932.3572      1525.7125    
   1031000   256.20389     -2897.8932     -752.51142      964.768       -1933.1252      1761.9099    
   1032000   249.17288     -2872.2249     -800.95918      939.11528     -1933.1096      1466.0161    
   1033000   259.41827     -2908.7323     -791.30415      976.49572     -1932.2366      1535.6933    
   1034000   258.27004     -2905.6664     -789.08919      972.30639     -1933.36        1568.8983    
   1035000   257.24047     -2903.2048     -794.70144      968.54998     -1934.6549      1452.7589    
   1036000   255.31979     -2895.2337     -782.63955      961.54237     -1933.6913      1569.6509    
   1037000   251.84061     -2881.0223     -753.73511      948.84854     -1932.1738      1741.3195    
   1038000   256.81765     -2900.989      -755.32062      967.00733     -1933.9817      1757.9742    
   1039000   249.41453     -2872.4585     -749.99311      939.99695     -1932.4615      1772.5305    
   1040000   245.80589     -2856.995      -777.16838      926.83077     -1930.1642      1571.3626    
   1041000   252.37973     -2881.4073     -764.79908      950.81551     -1930.5918      1619.791     
   1042000   254.23008     -2890.1895     -777.6674       957.56653     -1932.6229      1614.0124    
   1043000   250.11915     -2874.1751     -777.02885      942.56775     -1931.6073      1604.3478    
   1044000   250.01601     -2874.1442     -762.90902      942.19145     -1931.9527      1671.6036    
   1045000   249.85776     -2874.0399     -772.25548      941.61409     -1932.4258      1610.2718    
   1046000   251.06311     -2878.6657     -768.8118       946.01179     -1932.6539      1647.4311    
   1047000   259.01573     -2907.0625     -768.32521      975.02703     -1932.0355      1736.1022    
   1048000   250.70768     -2876.5274     -751.75518      944.715       -1931.8124      1743.377     
   1049000   256.70661     -2899.555      -782.09956      966.6022      -1932.9528      1538.3946    
   1050000   260.16031     -2914.4575     -762.72348      979.20304     -1935.2545      1767.4084    
   1051000   254.84535     -2893.7746     -778.72557      959.81134     -1933.9633      1599.6438    
   1052000   260.47618     -2915.843      -771.48048      980.35549     -1935.4875      1636.8864    
   1053000   259.32196     -2913.6538     -777.72729      976.14432     -1937.5095      1635.3148    
   1054000   255.25202     -2900.4571     -756.28137      961.29511     -1939.162       1756.5242    
   1055000   264.54714     -2936.0872     -787.80232      995.20843     -1940.8788      1643.6483    
   1056000   253.68192     -2896.7138     -762.41725      955.56657     -1941.1472      1667.8016    
   1057000   248.05971     -2878.5449     -779.93803      935.05386     -1943.491       1551.6583    
   1058000   258.53065     -2914.8703     -772.17971      973.2572      -1941.6131      1703.6748    
   1059000   249.61387     -2882.8914     -777.17804      940.72423     -1942.1672      1602.1378    
   1060000   252.45782     -2892.7251     -781.21972      951.10042     -1941.6246      1637.1307    
   1061000   242.56704     -2854.5744     -787.26069      915.0138      -1939.5606      1476.0366    
   1062000   252.56873     -2888.7363     -768.02932      951.50507     -1937.2313      1644.5518    
   1063000   256.62105     -2904.0942     -770.34692      966.29002     -1937.8042      1650.1581    
   1064000   253.19609     -2893.3195     -762.18115      953.79402     -1939.5255      1735.026     
   1065000   253.93682     -2895.4766     -772.47233      956.49656     -1938.98        1675.843     
   1066000   255.79755     -2902.2302     -778.83152      963.28546     -1938.9448      1652.1687    
   1067000   257.55429     -2907.7011     -768.30736      969.69496     -1938.0061      1678.05      
   1068000   248.18709     -2874.0997     -776.8512       935.51861     -1938.5811      1640.1204    
   1069000   250.30938     -2880.1601     -778.53695      943.26181     -1936.8983      1525.673     
   1070000   252.19111     -2886.9915     -784.23581      950.12732     -1936.8641      1583.07      
   1071000   261.49466     -2921.9509     -788.51747      984.07144     -1937.8795      1551.941     
   1072000   257.10437     -2907.6197     -789.50783      968.05343     -1939.5663      1548.7814    
   1073000   260.20405     -2916.9348     -782.29346      979.36261     -1937.5722      1582.7202    
   1074000   255.00773     -2896.0101     -778.609        960.40378     -1935.6063      1607.6438    
   1075000   248.27773     -2870.0651     -777.59887      935.84933     -1934.2158      1589.739     
   1076000   250.31294     -2877.0952     -763.85152      943.27479     -1933.8204      1721.6764    
   1077000   257.46356     -2900.4759     -767.22223      969.36393     -1931.1119      1739.2189    
   1078000   255.60951     -2892.193      -786.98449      962.5994      -1929.5936      1538.3485    
   1079000   255.06505     -2891.3053     -769.27413      960.61292     -1930.6924      1677.6619    
   1080000   250.38658     -2873.9761     -766.83992      943.54346     -1930.4327      1683.9721    
   1081000   260.06984     -2909.9425     -766.07279      978.87298     -1931.0695      1718.3465    
   1082000   253.56588     -2888.9489     -775.10842      955.14318     -1933.8058      1656.3442    
   1083000   256.89414     -2899.6315     -760.8712       967.28639     -1932.3451      1740.8763    
   1084000   251.00272     -2877.8069     -787.79195      945.79148     -1932.0154      1506.5203    
   1085000   258.71152     -2907.7377     -773.74245      973.9171      -1933.8206      1683.3761    
   1086000   257.05077     -2901.4004     -775.31161      967.85787     -1933.5426      1670.1938    
   1087000   252.75274     -2887.0169     -774.59712      952.17644     -1934.8404      1639.4552    
   1088000   257.48116     -2906.8352     -809.23047      969.42814     -1937.407       1380.1392    
   1089000   257.99605     -2906.9488     -777.28303      971.30671     -1935.6421      1621.9557    
   1090000   255.86782     -2898.2913     -773.26996      963.54184     -1934.7495      1659.6843    
   1091000   250.59703     -2878.0987     -768.41105      944.31131     -1933.7874      1710.4374    
   1092000   249.24619     -2873.0314     -766.56155      939.38276     -1933.6486      1676.1899    
   1093000   249.84315     -2875.928      -769.10316      941.56075     -1934.3673      1645.003     
   1094000   249.23726     -2873.0906     -784.29317      939.35016     -1933.7404      1482.4887    
   1095000   256.92418     -2900.9325     -762.07569      967.39598     -1933.5365      1714.059     
   1096000   260.10339     -2910.4707     -782.1302       978.99538     -1931.4753      1588.546     
   1097000   254.41148     -2890.4119     -781.45344      958.22837     -1932.1835      1583.8444    
   1098000   255.28112     -2893.3337     -773.04449      961.40125     -1931.9325      1640.542     
   1099000   258.7738      -2904.8287     -758.80251      974.14434     -1930.6844      1788.259     
   1100000   254.97956     -2890.9993     -797.93389      960.30101     -1930.6983      1450.1377    
   1101000   253.92602     -2888.2934     -778.32411      956.45718     -1931.8362      1598.6819    
   1102000   256.5999      -2898.6614     -766.5705       966.21286     -1932.4485      1697.6081    
   1103000   260.03712     -2912.6574     -784.55296      978.75358     -1933.9039      1556.9877    
   1104000   253.88355     -2889.2389     -788.49124      956.30222     -1932.9367      1519.4454    
   1105000   257.19901     -2901.775      -773.56951      968.3987      -1933.3763      1638.4472    
   1106000   262.59203     -2922.7498     -794.90456      988.07519     -1934.6746      1535.3271    
   1107000   248.7015      -2871.4905     -778.85336      937.39544     -1934.0951      1519.6388    
   1108000   252.03922     -2882.627      -759.00535      949.57315     -1933.0539      1741.7889    
   1109000   255.64279     -2896.7406     -780.68628      962.72083     -1934.0197      1602.4744    
   1110000   261.46189     -2917.1646     -792.32637      983.95189     -1933.2127      1507.7858    
   1111000   253.52024     -2889.2306     -766.14496      954.97669     -1934.254       1704.7427    
   1112000   256.86722     -2903.8463     -783.09797      967.18818     -1936.6581      1558.5016    
   1113000   250.03814     -2880.4138     -757.90912      942.27221     -1938.1416      1696.6246    
   1114000   255.54468     -2897.3499     -780.38117      962.36288     -1934.9871      1587.6092    
   1115000   254.86324     -2892.8052     -782.48639      959.87663     -1932.9286      1556.7965    
   1116000   248.66944     -2869.3784     -766.25801      937.27848     -1932.0999      1611.4001    
   1117000   253.92994     -2889.3734     -773.22242      956.47147     -1932.902       1635.5103    
   1118000   254.73942     -2891.8295     -766.61721      959.42487     -1932.4047      1669.8514    
   1119000   258.37131     -2905.0245     -777.79584      972.67585     -1932.3487      1658.5854    
   1120000   254.7824      -2889.2042     -784.21925      959.58167     -1929.6225      1600.6256    
   1121000   256.24676     -2894.7837     -763.29439      964.92442     -1929.8592      1738.5237    
   1122000   258.00749     -2903.5879     -785.9401       971.34844     -1932.2394      1562.474     
   1123000   258.77094     -2906.5663     -790.86602      974.13393     -1932.4323      1520.0102    
   1124000   256.14931     -2897.1415     -761.78481      964.56887     -1932.5726      1741.137     
   1125000   256.38828     -2899.5993     -777.666        965.44075     -1934.1586      1572.1029    
   1126000   261.54154     -2917.0402     -783.58067      984.24247     -1932.7977      1574.5688    
   1127000   249.86524     -2875.8692     -767.70848      941.64137     -1934.2278      1664.4482    
   1128000   254.07744     -2891.4051     -780.65826      957.00961     -1934.3955      1582.7399    
   1129000   253.60708     -2889.9256     -786.97315      955.2935      -1934.6321      1563.4614    
   1130000   267.07547     -2937.0645     -799.11578      1004.4331     -1932.6314      1532.5128    
   1131000   260.4501      -2910.8312     -798.83044      980.26033     -1930.5709      1460.3398    
   1132000   257.88247     -2901.5913     -772.59072      970.89233     -1930.6989      1644.335     
   1133000   249.48535     -2868.9857     -768.6726       940.25535     -1928.7304      1656.1828    
   1134000   258.49135     -2904.6365     -763.88503      973.11381     -1931.5226      1692.9526    
   1135000   263.6704      -2921.8094     -774.90432      992.00963     -1929.7997      1667.2025    
   1136000   250.09192     -2872.4228     -765.55194      942.46842     -1929.9544      1687.4075    
   1137000   252.83624     -2884.6954     -771.07342      952.4811      -1932.2143      1645.2034    
   1138000   245.43772     -2859.6064     -768.6384       925.48749     -1934.1189      1615.2779    
   1139000   253.56774     -2886.5813     -770.0239       955.14998     -1931.4313      1705.4365    
   1140000   251.20645     -2878.8737     -758.51513      946.5348      -1932.3389      1734.1006    
   1141000   261.60944     -2918.9697     -754.80679      984.4902      -1934.4795      1824.1573    
   1142000   248.04841     -2869.0597     -758.73001      935.01265     -1934.047       1733.4906    
   1143000   250.06601     -2874.5593     -778.6633       942.37388     -1932.1854      1591.8394    
   1144000   250.43212     -2876.5033     -758.65202      943.70963     -1932.7937      1733.2286    
   1145000   258.38212     -2907.1237     -776.20383      972.71532     -1934.4084      1638.1612    
   1146000   256.01852     -2897.0567     -775.58463      964.09166     -1932.965       1635.5504    
   1147000   254.93095     -2892.5449     -748.19354      960.12366     -1932.4212      1812.0475    
   1148000   255.35929     -2896.9285     -774.79371      961.68647     -1935.242       1648.7567    
   1149000   259.61336     -2908.3326     -768.38147      977.20748     -1931.1251      1701.1832    
   1150000   261.57155     -2917.2296     -777.84748      984.35198     -1932.8776      1625.1381    
   1151000   256.89414     -2898.9588     -780.68017      967.28637     -1931.6724      1578.1553    
   1152000   257.26382     -2899.5177     -774.73058      968.63516     -1930.8826      1646.2506    
   1153000   257.0713      -2897.9956     -778.69893      967.93277     -1930.0628      1604.6908    
   1154000   251.5968      -2878.3725     -767.54173      947.95897     -1930.4136      1679.6855    
   1155000   258.89431     -2905.4951     -773.00689      974.58402     -1930.9111      1625.2522    
   1156000   261.40593     -2913.3489     -788.44341      983.7477      -1929.6012      1571.4467    
   1157000   258.87784     -2901.2194     -783.59342      974.52395     -1926.6955      1557.1188    
   1158000   255.68272     -2889.4679     -768.75594      962.86652     -1926.6014      1674.2056    
   1159000   252.12716     -2876.047      -751.4454       949.894       -1926.153       1696.2269    
   1160000   251.1554      -2872.8093     -771.29147      946.34852     -1926.4608      1632.9136    
   1161000   257.08287     -2895.0363     -779.96874      967.97498     -1927.0613      1621.5196    
   1162000   251.72012     -2872.8711     -767.95147      948.40892     -1924.4622      1637.4082    
   1163000   254.2417      -2881.9405     -786.36065      957.60893     -1924.3316      1525.4066    
   1164000   254.22656     -2882.6702     -775.83576      957.55368     -1925.1166      1616.8223    
   1165000   262.71689     -2914.3154     -789.24312      988.53076     -1925.7847      1569.4158    
   1166000   256.87378     -2891.6145     -759.20753      967.21209     -1924.4024      1781.6243    
   1167000   253.91489     -2881.0556     -757.6629       956.41657     -1924.6391      1732.2557    
   1168000   257.66828     -2893.1493     -769.05053      970.11085     -1923.0384      1664.5184    
   1169000   263.15659     -2912.366      -770.574        990.13499     -1922.231       1683.7206    
   1170000   256.39259     -2890.1913     -775.06313      965.45646     -1924.7348      1709.5842    
   1171000   256.14508     -2890.9198     -778.79023      964.55343     -1926.3664      1596.7281    
   1172000   259.2212      -2902.7621     -772.32431      975.77668     -1926.9854      1619.2281    
   1173000   257.06923     -2893.2683     -761.83316      967.92519     -1925.3431      1711.6058    
   1174000   255.61384     -2889.9202     -764.24048      962.6152      -1927.305       1663.7546    
   1175000   256.73146     -2893.3339     -771.33814      966.69286     -1926.641       1616.6744    
   1176000   250.99474     -2873.2031     -771.05875      945.76235     -1927.4407      1657.7558    
   1177000   252.62918     -2880.5291     -778.58124      951.72564     -1928.8034      1632.5623    
   1178000   259.3705      -2907.4402     -783.79857      976.3214      -1931.1188      1587.6033    
   1179000   248.26011     -2868.2829     -756.37778      935.78503     -1932.4979      1656.9283    
   1180000   253.2093      -2887.1981     -766.39734      953.84221     -1933.3559      1650.4842    
   1181000   263.64406     -2927.2528     -796.81766      991.91355     -1935.3392      1533.3325    
   1182000   259.47922     -2912.1206     -780.94717      976.71809     -1935.4026      1630.1812    
   1183000   254.38852     -2893.0826     -771.45241      958.14461     -1934.938       1608.1331    
   1184000   251.27969     -2883.8724     -754.64666      946.802       -1937.0704      1733.4161    
   1185000   255.29164     -2898.3625     -784.97892      961.43964     -1936.9229      1594.6493    
   1186000   251.26242     -2885.3413     -766.87695      946.739       -1938.6023      1655.3833    
   1187000   253.39318     -2893.8958     -771.01757      954.51308     -1939.3827      1629.5661    
   1188000   252.1579      -2891.2402     -765.32723      950.00618     -1941.2341      1716.4132    
   1189000   256.01803     -2904.3302     -786.04839      964.08988     -1940.2403      1566.4942    
   1190000   254.00337     -2896.8863     -775.95219      956.73939     -1940.1469      1646.7515    
   1191000   253.61425     -2895.0972     -764.05701      955.31966     -1939.7776      1684.4349    
   1192000   248.01338     -2875.9165     -759.91263      934.88484     -1941.0317      1712.6963    
   1193000   252.06031     -2888.8617     -780.75841      949.6501      -1939.2116      1554.3867    
   1194000   246.97268     -2868.5515     -763.24783      931.08783     -1937.4637      1690.7853    
   1195000   249.35639     -2876.6651     -776.48798      939.78483     -1936.8803      1611.7632    
   1196000   258.46491     -2908.4824     -814.55482      973.01737     -1935.465       1373.5144    
   1197000   249.273       -2874.5567     -775.82515      939.48058     -1935.0762      1580.6168    
   1198000   255.93832     -2899.5405     -785.56644      963.79905     -1935.7415      1576.3227    
   1199000   253.46687     -2889.038      -765.40935      954.78195     -1934.2561      1697.1716    
   1200000   259.53392     -2911.221      -782.5441       976.91766     -1934.3033      1536.166     
   1201000   250.45771     -2878.9367     -771.76067      943.80299     -1935.1337      1637.2595    
   1202000   257.34449     -2902.6515     -780.40651      968.92951     -1933.722       1581.9625    
   1203000   256.56663     -2899.577      -783.12613      966.09146     -1933.4855      1589.0374    
   1204000   246.9743      -2863.1257     -762.81183      931.09374     -1932.0319      1656.9794    
   1205000   262.10404     -2918.749      -786.92252      986.29476     -1932.4542      1535.4306    
   1206000   257.50507     -2902.891      -764.1792       969.51535     -1933.3757      1745.6391    
   1207000   254.06104     -2890.0313     -766.30131      956.9498      -1933.0815      1672.6909    
   1208000   267.71672     -2940.2669     -795.48985      1006.7727     -1933.4942      1532.3503    
   1209000   249.34468     -2875.0883     -777.8565       939.7421      -1935.3462      1563.621     
   1210000   257.52603     -2905.0737     -783.10054      969.59185     -1935.4818      1555.7597    
   1211000   257.65767     -2903.859      -790.58495      970.07214     -1933.7869      1513.4397    
   1212000   267.09104     -2937.9755     -794.24338      1004.4899     -1933.4856      1581.9238    
   1213000   264.06891     -2925.6029     -781.33941      993.46362     -1932.1393      1682.0498    
   1214000   258.19889     -2904.7311     -783.13464      972.04678     -1932.6844      1541.5461    
   1215000   260.23911     -2909.9614     -790.67303      979.49057     -1930.4708      1472.0375    
   1216000   248.57198     -2867.6086     -764.2331       936.92288     -1930.6857      1651.3469    
   1217000   259.08415     -2906.2833     -787.42071      975.27666     -1931.0067      1679.599     
   1218000   258.83358     -2906.5581     -782.27901      974.36245     -1932.1956      1615.1057    
   1219000   248.90566     -2870.1073     -776.5679       938.14032     -1931.967       1566.4547    
   1220000   248.99423     -2869.7435     -773.12551      938.46346     -1931.2801      1592.8316    
   1221000   254.16073     -2888.7784     -778.1114       957.31352     -1931.4649      1621.4005    
   1222000   255.43035     -2893.8396     -769.9175       961.94575     -1931.8938      1644.3772    
   1223000   256.63593     -2898.8423     -783.00479      966.34429     -1932.498       1587.927     
   1224000   256.61369     -2899.9472     -764.82523      966.26315     -1933.6841      1662.7358    
   1225000   254.22192     -2893.3864     -785.70531      957.53677     -1935.8496      1559.9669    
   1226000   249.9791      -2876.888      -768.33521      942.0568      -1934.8312      1629.6332    
   1227000   256.97882     -2902.2915     -756.22062      967.59533     -1934.6961      1705.0784    
   1228000   258.25336     -2905.0162     -774.78506      972.24551     -1932.7707      1634.3017    
   1229000   254.41705     -2891.7763     -771.16131      958.24869     -1933.5276      1578.3818    
   1230000   258.00895     -2905.1701     -770.65348      971.3538      -1933.8163      1609.3597    
   1231000   256.01438     -2896.0306     -773.18734      964.07657     -1931.954       1649.0657    
   1232000   253.3039      -2883.6866     -781.44768      954.18734     -1929.4992      1519.6334    
   1233000   264.49923     -2924.9949     -793.81632      995.03364     -1929.9613      1536.1701    
   1234000   257.45313     -2899.5782     -748.84931      969.32586     -1930.2523      1764.4651    
   1235000   256.27362     -2893.4741     -761.591        965.02242     -1928.4517      1702.9408    
   1236000   260.04953     -2909.2156     -771.63886      978.79886     -1930.4167      1639.688     
   1237000   253.22277     -2886.7916     -763.76049      953.89133     -1932.9002      1680.9157    
   1238000   260.30116     -2911.9469     -778.52736      979.71692     -1932.23        1646.6758    
   1239000   254.22517     -2891.9148     -770.17313      957.54863     -1934.3662      1656.7662    
   1240000   252.09709     -2883.9729     -775.42855      949.78428     -1934.1886      1538.7835    
   1241000   254.2959      -2892.5786     -792.19618      957.80667     -1934.7719      1482.9051    
   1242000   257.43109     -2905.7477     -797.90954      969.24545     -1936.5023      1493.7975    
   1243000   247.29598     -2868.6381     -776.48769      932.26738     -1936.3708      1569.6839    
   1244000   247.99459     -2871.3531     -762.40614      934.81629     -1936.5368      1697.3843    
   1245000   256.94865     -2903.0128     -771.45322      967.48526     -1935.5275      1666.2297    
   1246000   257.82903     -2906.7965     -780.07097      970.69733     -1936.0992      1558.5455    
   1247000   253.66074     -2892.0005     -780.5938       955.48929     -1936.5112      1536.6835    
   1248000   250.44318     -2879.1168     -759.39715      943.74999     -1935.3668      1736.5762    
   1249000   252.96492     -2889.3076     -765.35815      952.95059     -1936.357       1652.8573    
   1250000   256.68448     -2903.3441     -765.31489      966.52145     -1936.8226      1672.5551    
   1251000   259.9882      -2916.617      -801.68847      978.57509     -1938.0419      1553.3707    
   1252000   256.64266     -2903.8472     -772.16215      966.36884     -1937.4784      1663.5298    
   1253000   255.84992     -2902.1241     -776.02238      963.47655     -1938.6476      1633.2901    
   1254000   260.38721     -2918.8262     -755.95989      980.03091     -1938.7953      1791.248     
   1255000   262.94854     -2928.9975     -774.6596       989.37595     -1939.6215      1663.2727    
   1256000   245.18066     -2864.6385     -762.48563      924.54961     -1940.0889      1617.0432    
   1257000   255.47631     -2900.932      -772.51424      962.11342     -1938.8186      1700.0122    
   1258000   258.75038     -2910.7894     -774.73368      974.0589      -1936.7305      1637.9075    
   1259000   256.47532     -2899.3383     -770.48442      965.75831     -1933.58        1657.4155    
   1260000   254.56397     -2891.373      -784.60681      958.78473     -1932.5882      1551.2095    
   1261000   257.78871     -2902.1061     -777.10217      970.55022     -1931.5558      1655.4466    
   1262000   259.17976     -2906.3251     -771.63297      975.62549     -1930.6997      1625.4722    
   1263000   247.29282     -2863.2809     -770.96475      932.25585     -1931.0251      1548.8674    
   1264000   255.35453     -2891.2004     -774.01484      961.66911     -1929.5313      1651.7031    
   1265000   256.21636     -2894.0662     -768.2846       964.81351     -1929.2527      1771.8892    
   1266000   255.98984     -2891.6895     -763.63279      963.98704     -1927.7025      1749.4216    
   1267000   257.15819     -2895.3209     -765.05848      968.24978     -1927.0712      1654.8754    
   1268000   256.88197     -2892.5973     -770.54989      967.24197     -1925.3554      1665.3025    
   1269000   251.74111     -2872.6855     -773.69081      948.4855      -1924.2         1597.1013    
   1270000   256.54236     -2892.0793     -770.47933      966.0029      -1926.0764      1664.5511    
   1271000   256.63245     -2893.1851     -782.90855      966.33162     -1926.8535      1552.9699    
   1272000   250.0897      -2869.4363     -729.00833      942.46032     -1926.976       1909.3868    
   1273000   249.71413     -2865.642      -767.61058      941.09003     -1924.552       1654.5064    
   1274000   257.60474     -2892.615      -782.78373      969.879       -1922.736       1594.1555    
   1275000   250.6572      -2864.8245     -753.82828      944.53083     -1920.2937      1702.166     
   1276000   259.87045     -2896.1818     -780.99464      978.14551     -1918.0363      1625.7513    
   1277000   256.69185     -2883.5448     -760.29631      966.54832     -1916.9965      1736.6736    
   1278000   259.68042     -2895.1964     -777.62783      977.45217     -1917.7442      1595.6118    
   1279000   252.95641     -2872.0972     -761.35644      952.91952     -1919.1777      1706.7978    
   1280000   267.66623     -2926.5076     -781.5017       1006.5885     -1919.9192      1621.9548    
   1281000   267.1104      -2924.3027     -788.5481       1004.5605     -1919.7421      1617.954     
   1282000   252.46414     -2869.4198     -776.46213      951.12349     -1918.2963      1571.7854    
   1283000   260.08641     -2895.636      -763.1217       978.93343     -1916.7026      1727.3686    
   1284000   254.73136     -2874.9424     -786.53462      959.39546     -1915.5469      1545.8804    
   1285000   254.8342      -2872.9457     -776.51645      959.77066     -1913.1751      1578.9167    
   1286000   257.51068     -2883.8131     -789.0546       969.53582     -1914.2773      1512.1037    
   1287000   254.75346     -2873.8769     -780.29149      959.47608     -1914.4008      1540.336     
   1288000   254.12448     -2871.3945     -753.78817      957.18125     -1914.2133      1722.6078    
   1289000   256.02914     -2879.4915     -767.30269      964.13043     -1915.361       1679.715     
   1290000   251.71475     -2865.3197     -777.67655      948.38932     -1916.9304      1582.2268    
   1291000   256.55704     -2882.4157     -767.3976       966.05646     -1916.3593      1679.0327    
   1292000   257.76437     -2887.3764     -737.68944      970.46143     -1916.915       1894.4179    
   1293000   264.1446      -2913.3096     -783.01553      993.73976     -1919.5699      1667.9395    
   1294000   253.12653     -2870.2678     -771.59346      953.54021     -1916.7276      1666.3425    
   1295000   258.04731     -2886.6378     -751.23394      971.49375     -1915.144       1771.8843    
   1296000   259.89469     -2893.262      -777.21426      978.23395     -1915.028       1670.6643    
   1297000   254.50255     -2873.5008     -772.38673      958.56066     -1914.9401      1608.6878    
   1298000   257.72844     -2887.9943     -783.13098      970.33035     -1917.6639      1596.3509    
   1299000   250.95522     -2863.9292     -758.23132      945.61819     -1918.311       1717.4458    
   1300000   258.81347     -2894.7128     -774.99465      974.2891      -1920.4237      1634.201     
   1301000   258.9079      -2896.743      -781.72516      974.63361     -1922.1094      1615.6109    
   1302000   256.38567     -2887.8919     -780.74521      965.43122     -1922.4607      1617.5562    
   1303000   256.63751     -2886.8972     -783.48768      966.35006     -1920.5472      1536.1711    
   1304000   262.9766      -2911.6863     -777.42187      989.47831     -1922.208       1665.966     
   1305000   256.48978     -2886.9832     -774.78458      965.81106     -1921.1721      1634.1801    
   1306000   265.99734     -2921.0961     -783.91242      1000.4995     -1920.5966      1615.4488    
   1307000   253.328       -2877.089      -750.63845      954.27527     -1922.8138      1761.2214    
   1308000   253.91121     -2878.6051     -762.05889      956.40312     -1922.2019      1702.1467    
   1309000   265.19928     -2921.0647     -787.17119      997.5878      -1923.4768      1565.2425    
   1310000   251.85222     -2871.5022     -768.61353      948.89088     -1922.6113      1668.9232    
   1311000   258.5016      -2898.1402     -768.57236      973.15122     -1924.989       1698.2604    
   1312000   256.18098     -2888.5101     -777.96391      964.68441     -1923.8257      1606.7199    
   1313000   250.75855     -2868.1063     -779.77393      944.90063     -1923.2057      1604.0103    
   1314000   265.39504     -2922.0478     -798.67891      998.30203     -1923.7458      1511.8499    
   1315000   256.75093     -2891.2678     -776.54474      966.76389     -1924.5039      1573.9997    
   1316000   258.82761     -2897.749      -783.85122      974.34066     -1923.4084      1607.3157    
   1317000   252.82852     -2874.6879     -754.641        952.45291     -1922.235       1798.6022    
   1318000   262.51209     -2910.0745     -767.1152       987.78355     -1922.291       1673.5799    
   1319000   248.99517     -2858.095      -763.59163      938.46692     -1919.628       1679.6349    
   1320000   260.15726     -2899.0747     -778.6265       979.19191     -1919.8828      1604.0711    
   1321000   263.52033     -2910.2986     -770.99239      991.46211     -1918.8365      1709.2232    
   1322000   258.87226     -2892.6028     -774.4185       974.50357     -1918.0992      1661.5597    
   1323000   259.13264     -2894.6716     -783.81374      975.45359     -1919.218       1574.5884    
   1324000   257.72979     -2890.8498     -785.8961       970.33527     -1920.5146      1557.7353    
   1325000   257.02035     -2887.6872     -777.20626      967.74687     -1919.9403      1632.8266    
   1326000   260.08205     -2900.2876     -785.1373       978.91751     -1921.3701      1568.3077    
   1327000   262.73613     -2908.4022     -780.00469      988.60095     -1919.8013      1590.1979    
   1328000   263.43682     -2911.9991     -770.13296      991.15744     -1920.8417      1691.4776    
   1329000   257.85878     -2893.9559     -747.46735      970.80589     -1923.15        1845.7282    
   1330000   252.37688     -2873.2044     -763.03589      950.80511     -1922.3992      1705.6382    
   1331000   248.07946     -2859.0997     -759.61847      935.12591     -1923.9738      1689.4559    
   1332000   257.38358     -2893.238      -765.34463      969.0721      -1924.1659      1710.5902    
   1333000   248.58475     -2863.6567     -759.07258      936.96947     -1926.6873      1741.3892    
   1334000   257.54542     -2895.7014     -782.67841      969.6626      -1926.0388      1587.2761    
   1335000   253.50905     -2882.192      -777.96051      954.93584     -1927.2561      1582.8792    
   1336000   256.49592     -2892.0914     -774.86737      965.83349     -1926.2579      1648.4151    
   1337000   262.03179     -2913.7317     -779.44271      986.03114     -1927.7005      1624.0294    
   1338000   253.46253     -2881.6544     -769.83028      954.76613     -1926.8883      1594.5207    
   1339000   254.05348     -2884.4589     -762.11414      956.9222      -1927.5367      1666.2706    
   1340000   258.50149     -2901.1306     -786.85038      973.15082     -1927.9798      1579.7667    
   1341000   255.30814     -2888.3374     -773.38895      961.49986     -1926.8375      1634.553     
   1342000   251.81371     -2875.722      -767.34453      948.75038     -1926.9716      1655.1598    
   1343000   259.19311     -2900.3131     -773.97416      975.6742      -1924.6389      1661.2148    
   1344000   253.39127     -2877.4981     -777.42803      954.50614     -1922.992       1636.6613    
   1345000   259.61339     -2901.21       -767.97816      977.20761     -1924.0024      1714.1933    
   1346000   257.54638     -2895.1504     -762.49644      969.66609     -1925.4843      1703.155     
   1347000   261.91505     -2909.5304     -781.26065      985.60525     -1923.9252      1551.6328    
   1348000   260.58912     -2903.9535     -774.61205      980.76756     -1923.186       1632.8994    
   1349000   257.009       -2892.3826     -773.7835       967.70547     -1924.6772      1630.1655    
   1350000   256.50226     -2890.7874     -791.94335      965.85662     -1924.9308      1526.1763    
   1351000   258.8445      -2899.803      -793.31986      974.40231     -1925.4007      1517.7881    
   1352000   254.3301      -2883.9992     -767.63949      957.93147     -1926.0677      1649.9064    
   1353000   253.36041     -2880.9317     -764.33422      954.39353     -1926.5381      1676.3831    
   1354000   263.35286     -2917.3421     -775.85563      990.8511      -1926.491       1628.6919    
   1355000   251.43693     -2874.8682     -762.16219      947.37568     -1927.4926      1688.3489    
   1356000   260.7877      -2909.6576     -797.87248      981.4921      -1928.1655      1403.6195    
   1357000   250.1107      -2869.748      -760.36289      942.53691     -1927.2111      1690.2143    
   1358000   264.37033     -2920.5766     -765.7882       994.56335     -1926.0133      1696.986     
   1359000   261.02955     -2908.836      -772.28645      982.37449     -1926.4615      1711.6149    
   1360000   252.66757     -2879.6362     -794.60705      951.86569     -1927.7705      1485.548     
   1361000   258.79207     -2901.3939     -777.35125      974.21099     -1927.1829      1601.076     
   1362000   252.52976     -2880.0685     -770.7719       951.36288     -1928.7056      1612.716     
   1363000   249.93351     -2870.9561     -764.55304      941.89045     -1929.0656      1655.1453    
   1364000   254.90215     -2889.3439     -754.21348      960.01858     -1929.3254      1771.094     
   1365000   253.77262     -2883.9651     -787.09504      955.8975      -1928.0676      1553.5026    
   1366000   255.48049     -2893.1865     -769.84152      962.12866     -1931.0578      1695.9915    
   1367000   256.32224     -2897.8538     -768.81803      965.19979     -1932.6541      1700.6415    
   1368000   260.9847      -2914.8266     -771.01865      982.21085     -1932.6158      1694.0575    
   1369000   257.34089     -2901.9554     -764.1353       968.91636     -1933.039       1699.6028    
   1370000   252.60255     -2887.0544     -768.30059      951.62848     -1935.4259      1675.8549    
   1371000   253.14321     -2885.404      -779.50635      953.60107     -1931.8029      1593.8209    
   1372000   252.88047     -2883.0601     -780.39784      952.64248     -1930.4176      1596.4037    
   1373000   254.94225     -2894.0914     -780.73808      960.1649      -1933.9265      1596.3654    
   1374000   253.41253     -2885.6128     -779.74285      954.58369     -1931.0291      1553.7489    
   1375000   255.07456     -2891.4909     -780.82528      960.64761     -1930.8432      1607.2375    
   1376000   253.44822     -2883.1881     -770.658        954.7139      -1928.4742      1632.8849    
   1377000   255.48072     -2890.9247     -769.75694      962.12952     -1928.7952      1650.6043    
   1378000   255.45735     -2892.5471     -767.47914      962.04423     -1930.5028      1701.8927    
   1379000   249.25048     -2869.9437     -748.80182      939.39841     -1930.5453      1767.1796    
   1380000   256.39561     -2897.1268     -774.47192      965.46749     -1931.6593      1657.3608    
   1381000   260.48823     -2911.1813     -775.27181      980.39945     -1930.7819      1626.7342    
   1382000   253.15376     -2884.732      -778.36036      953.63958     -1931.0924      1565.2842    
   1383000   251.29962     -2876.8674     -769.04221      946.87472     -1929.9927      1659.4379    
   1384000   249.08842     -2869.7112     -776.47235      938.80713     -1930.904       1599.2133    
   1385000   264.83274     -2928.1685     -810.38327      996.25046     -1931.9181      1401.3785    
   1386000   256.97421     -2901.2052     -782.82735      967.57854     -1933.6267      1599.4143    
   1387000   251.98497     -2884.0466     -777.84793      949.37523     -1934.6714      1617.1708    
   1388000   251.61933     -2878.6871     -776.73072      948.0412      -1930.6459      1569.2498    
   1389000   257.07359     -2898.6221     -766.51522      967.94112     -1930.681       1649.9995    
   1390000   252.35335     -2881.7834     -769.05986      950.71927     -1931.0641      1633.2912    
   1391000   254.20144     -2888.6667     -784.08006      957.46202     -1931.2047      1512.5933    
   1392000   260.22591     -2910.9767     -775.44156      979.44237     -1931.5344      1612.7316    
   1393000   258.30922     -2903.7361     -774.07039      972.44932     -1931.2868      1662.2649    
   1394000   256.97219     -2899.9764     -786.54822      967.57116     -1932.4053      1530.3669    
   1395000   254.5108      -2889.2967     -764.1608       958.59074     -1930.7059      1751.3964    
   1396000   253.77693     -2886.8042     -781.65567      955.91321     -1930.891       1593.1432    
   1397000   257.54491     -2902.4389     -775.56984      969.66073     -1932.7782      1678.4352    
   1398000   257.50933     -2900.1389     -790.49792      969.53091     -1930.608       1581.1153    
   1399000   254.84364     -2889.2494     -768.39689      959.80511     -1929.4442      1659.1627    
   1400000   253.59494     -2886.4322     -780.58464      955.24922     -1931.183       1542.2281    
   1401000   251.78546     -2881.7451     -780.83065      948.6473      -1933.0978      1554.0963    
   1402000   259.53124     -2909.6093     -777.27686      976.90789     -1932.7014      1589.9526    
   1403000   257.89065     -2905.8627     -806.75893      970.92215     -1934.9405      1427.1208    
   1404000   251.08432     -2880.594      -770.46228      946.0892      -1934.5048      1658.2565    
   1405000   260.654       -2915.5317     -770.46663      981.00428     -1934.5275      1715.9033    
   1406000   260.4936      -2917.5118     -780.3725       980.41905     -1937.0927      1654.3584    
   1407000   256.32594     -2904.742      -779.41191      965.21329     -1939.5287      1660.2979    
   1408000   257.66815     -2911.5386     -771.48659      970.11037     -1941.4283      1686.6485    
   1409000   255.29634     -2902.0819     -772.61412      961.45678     -1940.6251      1677.797     
   1410000   256.87216     -2909.5961     -765.62636      967.20619     -1942.3899      1728.873     
   1411000   250.10149     -2885.6457     -767.9892       942.50334     -1943.1424      1644.6582    
   1412000   252.3692      -2894.473      -789.25507      950.7771      -1943.6959      1545.7339    
   1413000   254.37176     -2902.1468     -786.64768      958.08346     -1944.0634      1561.8756    
   1414000   252.97052     -2896.0617     -783.39783      952.971       -1943.0907      1564.9687    
   1415000   253.28029     -2897.6853     -764.63157      954.1012      -1943.5841      1733.4083    
   1416000   256.30095     -2907.6078     -769.56389      965.12214     -1942.4857      1616.166     
   1417000   254.49422     -2901.575      -778.6974       958.53026     -1943.0448      1673.7111    
   1418000   253.06841     -2898.3851     -782.11452      953.32816     -1945.0569      1566.5464    
   1419000   259.37108     -2921.9271     -790.28115      976.32353     -1945.6036      1509.9097    
   1420000   254.0622      -2903.4153     -796.06572      956.95403     -1946.4613      1473.7567    
   1421000   241.64097     -2858.9279     -756.14267      911.63502     -1947.2928      1716.7639    
   1422000   254.48861     -2905.6777     -772.69675      958.50979     -1947.1679      1654.2924    
   1423000   256.3229      -2912.4268     -779.73917      965.2022      -1947.2246      1628.2412    
   1424000   261.1309      -2931.2569     -781.52443      982.74426     -1948.5126      1580.0058    
   1425000   252.17021     -2899.4235     -776.22243      950.05109     -1949.3724      1624.499     
   1426000   258.27138     -2920.9884     -786.82411      972.31127     -1948.6771      1570.811     
   1427000   253.45803     -2902.0104     -762.99256      954.74969     -1947.2607      1675.4992    
   1428000   248.08149     -2881.7092     -769.96779      935.13335     -1946.5759      1615.8433    
   1429000   254.13168     -2901.3481     -767.44754      957.2075      -1944.1406      1652.7347    
   1430000   255.09824     -2904.5743     -769.82286      960.73403     -1943.8403      1617.3265    
   1431000   252.61872     -2896.1907     -775.65904      951.68746     -1944.5032      1630.0506    
   1432000   248.54581     -2881.6128     -773.94143      936.82741     -1944.7854      1600.4808    
   1433000   258.89055     -2919.7714     -797.69605      974.57032     -1945.2011      1523.1856    
   1434000   250.61392     -2891.7184     -783.04062      944.37295     -1947.3455      1529.5362    
   1435000   251.97167     -2897.2128     -766.86779      949.32668     -1947.8861      1687.5465    
   1436000   260.24348     -2925.841      -767.65555      979.5065      -1946.3345      1729.352     
   1437000   249.2994      -2887.5632     -777.65449      939.57689     -1947.9863      1607.6034    
   1438000   254.57619     -2907.4642     -781.39806      958.82932     -1948.6349      1609.1273    
   1439000   251.99566     -2897.2895     -781.29644      949.41424     -1947.8752      1600.6398    
   1440000   248.0893      -2882.0673     -767.11912      935.16182     -1946.9055      1662.4704    
   1441000   248.21944     -2881.4861     -764.13064      935.63663     -1945.8495      1673.6449    
   1442000   252.11354     -2897.4135     -784.45296      949.84432     -1947.5692      1563.0077    
   1443000   247.22587     -2876.8906     -765.02314      932.01161     -1944.879       1617.5479    
   1444000   250.44463     -2887.5845     -762.66016      943.75526     -1943.8292      1688.1598    
   1445000   262.21427     -2932.3263     -804.90481      986.69693     -1945.6293      1471.2778    
   1446000   257.76472     -2916.8871     -781.36433      970.4627      -1946.4244      1628.0645    
   1447000   254.75205     -2905.6727     -779.17665      959.47096     -1946.2018      1587.8519    
   1448000   252.22587     -2897.9596     -756.92901      950.25415     -1947.7055      1761.6458    
   1449000   252.41675     -2897.6437     -786.50821      950.95057     -1946.6932      1553.4712    
   1450000   258.43648     -2919.4813     -784.01451      972.91363     -1946.5677      1617.7316    
   1451000   255.64451     -2907.216      -784.39799      962.72708     -1944.4889      1521.1018    
   1452000   260.47935     -2925.2622     -799.68125      980.36707     -1944.8952      1552.7921    
   1453000   254.80255     -2901.7168     -784.82687      959.6552      -1942.0616      1505.7142    
   1454000   259.72939     -2918.9658     -784.87781      977.63081     -1941.335       1591.2903    
   1455000   251.50057     -2888.76       -776.65662      947.60789     -1941.1521      1612.4091    
   1456000   257.61301     -2911.0559     -779.89119      969.90918     -1941.1467      1615.4863    
   1457000   260.17332     -2921.2896     -767.70443      979.25052     -1942.0391      1664.0898    
   1458000   252.00916     -2892.1003     -772.55865      949.46347     -1942.6368      1614.6966    
   1459000   254.4741      -2901.3933     -776.99659      958.45683     -1942.9364      1608.8122    
   1460000   248.51553     -2879.6041     -773.0625       936.71693     -1942.8871      1616.9313    
   1461000   254.25821     -2898.277      -745.92663      957.66917     -1940.6078      1781.2287    
   1462000   257.41392     -2910.619      -785.10866      969.18282     -1941.4362      1582.6941    
   1463000   254.40637     -2898.6433     -773.37496      958.20972     -1940.4336      1643.1399    
   1464000   249.02463     -2878.567      -770.09591      938.5744      -1939.9926      1613.4799    
   1465000   253.13612     -2891.2261     -785.90062      953.57519     -1937.6509      1548.1394    
   1466000   254.36133     -2894.3005     -770.08959      958.04541     -1936.255       1705.2746    
   1467000   259.7721      -2913.1068     -777.64441      977.78664     -1935.3201      1621.5435    
   1468000   257.64219     -2901.9714     -773.69694      970.01566     -1931.9558      1653.5134    
   1469000   246.00602     -2859.9756     -757.87534      927.56097     -1932.4146      1702.7784    
   1470000   255.24201     -2892.7597     -786.26147      961.25858     -1931.5011      1543.8217    
   1471000   264.26229     -2925.4314     -779.53469      994.16915     -1931.2623      1697.5742    
   1472000   253.52405     -2886.7504     -780.08248      954.99058     -1931.7598      1561.0199    
   1473000   255.40115     -2892.7634     -767.81828      961.83919     -1930.9242      1700.1381    
   1474000   256.17752     -2893.559      -781.13002      964.67179     -1928.8872      1598.5219    
   1475000   248.71975     -2867.0757     -754.28644      937.46203     -1929.6137      1724.275     
   1476000   257.80586     -2900.0272     -777.47512      970.61279     -1929.4144      1580.4343    
   1477000   253.28199     -2880.5375     -779.79997      954.10742     -1926.4301      1590.6914    
   1478000   256.19759     -2892.4674     -754.23993      964.74501     -1927.7224      1754.4426    
   1479000   256.39367     -2893.9507     -770.75858      965.46043     -1928.4903      1627.2651    
   1480000   245.59886     -2852.4567     -764.13477      926.07543     -1926.3812      1632.8617    
   1481000   254.11269     -2883.9636     -787.76871      957.13825     -1926.8254      1535.3859    
   1482000   258.2442      -2899.3693     -780.83418      972.21211     -1927.1572      1595.8088    
   1483000   260.19334     -2905.9895     -781.46444      979.32354     -1926.6659      1557.0336    
   1484000   255.58932     -2887.8758     -778.29951      962.52575     -1925.35        1573.3231    
   1485000   264.03384     -2920.1574     -776.43895      993.33566     -1926.8217      1651.902     
   1486000   256.96638     -2894.7748     -772.31303      967.54994     -1927.2248      1598.214     
   1487000   256.66842     -2892.1409     -781.76813      966.46286     -1925.6781      1575.3255    
   1488000   259.56248     -2902.8267     -786.67361      977.02187     -1925.8048      1568.5602    
   1489000   258.26293     -2898.7933     -766.37364      972.28044     -1926.5129      1702.0257    
   1490000   256.5083      -2891.9056     -769.08902      965.87866     -1926.0269      1664.5127    
   1491000   258.09039     -2898.4806     -786.5561       971.65092     -1926.8296      1537.0084    
   1492000   255.51179     -2889.1876     -738.52587      962.24288     -1926.9448      1899.2911    
   1493000   255.31863     -2889.4183     -752.18906      961.53811     -1927.8802      1810.7033    
   1494000   252.74292     -2881.2539     -752.46796      952.14061     -1929.1133      1763.1872    
   1495000   257.49648     -2898.2384     -786.63687      969.48402     -1928.7544      1600.7668    
   1496000   258.08948     -2901.7462     -779.25894      971.6476      -1930.0986      1627.1711    
   1497000   254.21441     -2886.5205     -773.64931      957.50937     -1929.0112      1586.4945    
   1498000   254.60689     -2886.6364     -782.83703      958.94132     -1927.6951      1613.8624    
   1499000   260.06071     -2908.2983     -772.38825      978.83964     -1929.4586      1650.803     
   1500000   251.97719     -2879.3628     -760.47396      949.34682     -1930.016       1663.6958    
   1501000   256.33403     -2898.0544     -781.32961      965.24281     -1932.8116      1636.6729    
   1502000   251.16673     -2879.8785     -771.51126      946.38987     -1933.4887      1584.3716    
   1503000   258.91009     -2907.7719     -781.56903      974.64161     -1933.1303      1625.0845    
   1504000   250.44781     -2875.831      -762.90572      943.76686     -1932.0642      1693.2494    
   1505000   250.48089     -2874.547      -761.25288      943.88757     -1930.6594      1662.747     
   1506000   255.49502     -2892.9451     -762.86608      962.18168     -1930.7634      1708.2967    
   1507000   261.11709     -2914.0492     -778.20316      982.69386     -1931.3553      1601.5964    
   1508000   247.52653     -2864.8271     -770.40359      933.10855     -1931.7185      1681.3066    
   1509000   252.19075     -2881.5715     -785.06882      950.126       -1931.4455      1516.6223    
   1510000   252.12683     -2880.7403     -775.89013      949.8928      -1930.8475      1619.9856    
   1511000   253.70439     -2885.4958     -771.87695      955.64856     -1929.8472      1617.454     
   1512000   250.76323     -2875.2215     -770.21977      944.91768     -1930.3039      1686.1147    
   1513000   258.63442     -2904.8829     -775.03664      973.63582     -1931.2471      1616.6014    
   1514000   251.14286     -2878.6376     -776.29885      946.30277     -1932.3349      1531.4446    
   1515000   257.20397     -2901.1727     -745.65749      968.41681     -1932.7559      1827.2539    
   1516000   253.26926     -2887.5019     -762.2354       954.06097     -1933.4409      1752.7194    
   1517000   256.90531     -2898.4837     -776.37462      967.32713     -1931.1566      1622.4963    
   1518000   254.83286     -2891.8201     -783.19339      959.76578     -1932.0543      1533.1921    
   1519000   258.42615     -2904.2602     -770.97664      972.87595     -1931.3843      1731.0145    
   1520000   253.11426     -2883.9013     -785.92061      953.49545     -1930.4058      1502.5432    
   1521000   255.64469     -2894.7816     -791.51261      962.72777     -1932.0538      1493.152     
   1522000   250.79272     -2877.7711     -751.07457      945.02528     -1932.7459      1768.3291    
   1523000   256.28043     -2899.0463     -797.22289      965.04726     -1933.999       1464.3804    
   1524000   257.73543     -2906.5437     -765.55035      970.35584     -1936.1879      1680.0889    
   1525000   260.09244     -2915.1435     -772.78006      978.95542     -1936.1881      1676.5264    
   1526000   256.1538      -2901.5963     -763.94926      964.58523     -1937.0111      1707.4523    
   1527000   256.57757     -2901.1295     -776.43319      966.13137     -1934.9982      1573.2395    
   1528000   251.84688     -2885.453      -766.8223       948.87139     -1936.5816      1651.3467    
   1529000   257.35647     -2905.6749     -784.41156      968.9732      -1936.7017      1612.9757    
   1530000   251.87498     -2885.6453     -788.8814       948.97391     -1936.6714      1515.4617    
   1531000   262.40181     -2924.1263     -774.39849      987.38117     -1936.7451      1666.1617    
   1532000   257.1907      -2906.2832     -792.24676      968.36839     -1937.9148      1514.9207    
   1533000   261.02096     -2919.895      -780.88944      982.34312     -1937.5519      1618.6307    
   1534000   256.89756     -2904.6378     -780.49943      967.29885     -1937.339       1612.5147    
   1535000   255.15918     -2895.3206     -763.41538      960.95636     -1934.3643      1792.9153    
   1536000   252.41777     -2885.3093     -784.82101      950.95431     -1934.3549      1523.4767    
   1537000   265.02368     -2933.2727     -784.55144      996.94712     -1936.3256      1602.6817    
   1538000   257.12366     -2904.483      -765.65159      968.12378     -1936.3592      1729.0084    
   1539000   257.21517     -2903.7068     -764.02504      968.45768     -1935.2492      1730.2548    
   1540000   256.05169     -2900.0058     -784.377        964.2127      -1935.7931      1536.93      
   1541000   258.1689      -2909.5362     -792.95753      971.93737     -1937.5989      1590.4191    
   1542000   255.33518     -2900.3312     -790.24688      961.59852     -1938.7327      1494.1447    
   1543000   244.72533     -2861.3232     -763.5522       922.88834     -1938.4348      1654.2011    
   1544000   259.74387     -2916.0325     -786.84761      977.68366     -1938.3489      1566.352     
   1545000   261.26801     -2921.5301     -795.72696      983.24451     -1938.2856      1539.6632    
   1546000   258.66536     -2910.0422     -795.3944       973.74871     -1936.2935      1556.8153    
   1547000   257.98208     -2905.8407     -772.50239      971.25574     -1934.585       1645.2969    
   1548000   253.09641     -2889.4647     -776.04957      953.43032     -1936.0344      1600.5692    
   1549000   263.97469     -2928.918      -795.44302      993.11987     -1935.7981      1564.8766    
   1550000   252.62426     -2886.2936     -771.05798      951.70767     -1934.5859      1649.2266    
   1551000   255.63382     -2897.532      -777.50582      962.6881      -1934.8439      1657.3444    
   1552000   251.14791     -2882.4006     -748.51396      946.32121     -1936.0794      1772.6223    
   1553000   263.35232     -2925.242      -791.96037      990.84912     -1934.3929      1551.8032    
   1554000   262.42392     -2921.3268     -772.28731      987.46185     -1933.865       1705.2272    
   1555000   252.70214     -2886.1765     -783.56919      951.99183     -1934.1847      1589.5204    
   1556000   251.43082     -2881.1051     -778.35838      947.35339     -1933.7518      1606.6918    
   1557000   262.76855     -2921.4309     -791.68502      988.71923     -1932.7117      1572.6919    
   1558000   255.56507     -2896.4189     -772.5918       962.43727     -1933.9816      1695.1833    
   1559000   253.82319     -2891.6643     -766.09463      956.082       -1935.5823      1667.2599    
   1560000   261.85291     -2921.5627     -785.96257      985.37852     -1936.1841      1572.7752    
   1561000   251.60968     -2882.8109     -784.32392      948.00598     -1934.8049      1527.2946    
   1562000   247.34367     -2867.2599     -772.17386      932.4414      -1934.8185      1564.6041    
   1563000   257.31214     -2903.9069     -767.07747      968.81146     -1935.0955      1678.9859    
   1564000   255.78081     -2900.1148     -794.27764      963.22439     -1936.8904      1489.236     
   1565000   255.66882     -2901.2187     -782.56298      962.81579     -1938.4029      1602.5149    
   1566000   253.07501     -2892.7692     -793.04578      953.35226     -1939.4169      1531.8882    
   1567000   253.65425     -2896.1026     -769.24952      955.46559     -1940.637       1576.1678    
   1568000   255.99012     -2903.1622     -783.34127      963.98808     -1939.1741      1542.3886    
   1569000   251.67481     -2886.215      -761.63521      948.2436      -1937.9714      1651.0932    
   1570000   254.84682     -2896.2456     -770.08346      959.81673     -1936.4289      1631.7548    
   1571000   252.2304      -2887.3206     -780.6922       950.27069     -1937.0499      1572.4238    
   1572000   256.95427     -2906.0501     -787.02435      967.50578     -1938.5443      1585.7094    
   1573000   254.41524     -2894.4878     -782.76331      958.24209     -1936.2457      1591.1451    
   1574000   252.28246     -2887.36       -762.60317      950.46062     -1936.8994      1725.8919    
   1575000   252.01284     -2887.1607     -779.78743      949.4769      -1937.6838      1619.4401    
   1576000   250.72545     -2881.4266     -769.66069      944.77985     -1936.6468      1633.0043    
   1577000   250.50951     -2882.6519     -768.02097      943.992       -1938.6599      1645.3821    
   1578000   251.92182     -2888.9526     -776.18244      949.14482     -1939.8078      1578.1839    
   1579000   261.74536     -2922.7862     -768.35161      984.98612     -1937.8001      1706.754     
   1580000   253.92713     -2894.1802     -756.05921      956.46123     -1937.719       1756.4854    
   1581000   254.5475      -2896.1384     -767.49814      958.72464     -1937.4138      1659.8315    
   1582000   254.23937     -2895.4194     -775.21027      957.60043     -1937.8189      1543.582     
   1583000   251.68654     -2885.027      -776.73092      948.28641     -1936.7405      1633.7127    
   1584000   257.19716     -2904.3959     -781.51312      968.39195     -1936.0039      1642.141     
   1585000   250.86944     -2881.8356     -769.38522      945.30521     -1936.5304      1647.2037    
   1586000   252.29699     -2888.9325     -772.96397      950.51363     -1938.4188      1629.9458    
   1587000   253.64999     -2893.0369     -765.11514      955.45007     -1937.5868      1691.0068    
   1588000   256.20447     -2905.0353     -769.80732      964.77012     -1940.2652      1690.2653    
   1589000   261.25203     -2925.8491     -781.85366      983.18618     -1942.6629      1609.9499    
   1590000   260.46927     -2922.8837     -768.36376      980.33029     -1942.5534      1697.7449    
   1591000   254.31032     -2900.1688     -773.80567      957.8593      -1942.3095      1558.9122    
   1592000   258.14608     -2913.6614     -785.26484      971.85411     -1941.8073      1558.329     
   1593000   257.98359     -2913.8441     -786.15155      971.26126     -1942.5828      1570.0083    
   1594000   252.20801     -2894.1697     -788.64234      950.189       -1943.9807      1479.9723    
   1595000   254.02936     -2902.5779     -783.04955      956.83421     -1945.7437      1576.7666    
   1596000   247.64443     -2880.39       -769.71069      933.53872     -1946.8512      1618.7773    
   1597000   259.44952     -2923.3675     -754.66656      976.60972     -1946.7578      1775.825     
   1598000   256.14299     -2909.9196     -789.57414      964.54581     -1945.3738      1565.9691    
   1599000   255.11158     -2906.0926     -769.80734      960.7827      -1945.3099      1660.7413    
   1600000   247.97505     -2878.999      -769.39261      934.745       -1944.254       1606.4032    
   1601000   254.31355     -2904.8008     -774.60438      957.87108     -1946.9297      1590.8978    
   1602000   250.24487     -2889.2431     -774.70018      943.02643     -1946.2166      1590.8014    
   1603000   255.28134     -2908.1103     -791.1598       961.40207     -1946.7082      1559.7335    
   1604000   250.92505     -2890.1935     -777.67985      945.50809     -1944.6854      1529.8954    
   1605000   252.11696     -2893.3931     -772.20026      949.85677     -1943.5363      1608.955     
   1606000   247.34517     -2874.3385     -768.78566      932.44687     -1941.8916      1617.2026    
   1607000   247.33125     -2873.2902     -774.43574      932.39606     -1940.8941      1619.5731    
   1608000   249.79483     -2881.3069     -762.51048      941.38447     -1939.9224      1668.7167    
   1609000   257.47217     -2909.2747     -776.46036      969.39535     -1939.8793      1642.8563    
   1610000   250.41673     -2882.6786     -786.88455      943.65349     -1939.0251      1576.3656    
   1611000   251.78227     -2887.0386     -771.44508      948.63569     -1938.4029      1610.9321    
   1612000   249.32632     -2878.8418     -760.88308      939.67509     -1939.1667      1736.8076    
   1613000   252.87007     -2891.8339     -763.29717      952.60454     -1939.2294      1722.3167    
   1614000   250.07194     -2880.708      -791.39436      942.3955      -1938.3125      1518.8924    
   1615000   255.44191     -2899.6455     -782.4831       961.98792     -1937.6576      1590.9205    
   1616000   257.98443     -2909.3078     -778.75931      971.26432     -1938.0435      1579.5068    
   1617000   253.56952     -2894.1939     -779.42324      955.15647     -1939.0375      1607.6501    
   1618000   246.29577     -2866.1804     -766.49217      928.61812     -1937.5622      1593.0108    
   1619000   260.15583     -2917.6692     -785.93787      979.18669     -1938.4825      1598.6297    
   1620000   255.381       -2898.4173     -768.74042      961.76566     -1936.6516      1685.9167    
   1621000   255.69859     -2898.468      -773.75177      962.92441     -1935.5436      1700.6273    
   1622000   256.53021     -2903.091      -762.19501      965.95857     -1937.1324      1685.6462    
   1623000   253.70371     -2893.9169     -757.71919      955.64607     -1938.2708      1776.7547    
   1624000   257.57191     -2907.4677     -770.79048      969.75924     -1937.7085      1658.0291    
   1625000   256.0641      -2900.8137     -796.20952      964.25798     -1936.5557      1504.0483    
   1626000   253.80608     -2894.1854     -779.66567      956.01958     -1938.1658      1590.5647    
   1627000   250.63838     -2885.2124     -797.10317      944.46216     -1940.7503      1420.2668    
   1628000   254.85303     -2902.1402     -789.9376       959.83937     -1942.3008      1468.2344    
   1629000   258.40017     -2915.8377     -772.42469      972.78115     -1943.0566      1623.338     
   1630000   247.76209     -2875.4612     -751.74849      933.96801     -1941.4932      1764.1174    
   1631000   259.37927     -2917.0434     -787.81325      976.35342     -1940.69        1554.5104    
   1632000   254.19895     -2897.541      -777.93076      957.45295     -1940.088       1629.9343    
   1633000   249.60755     -2881.4411     -777.01588      940.70118     -1940.74        1599.4185    
   1634000   262.20874     -2928.7722     -794.65155      986.67675     -1942.0954      1559.0367    
   1635000   258.89296     -2916.1602     -776.19506      974.57911     -1941.5811      1665.0529    
   1636000   263.28371     -2931.5603     -793.02982      990.59879     -1940.9615      1539.3416    
   1637000   254.50743     -2900.1158     -782.15846      958.57846     -1941.5373      1607.8468    
   1638000   247.88597     -2875.0722     -759.71767      934.41999     -1940.6523      1675.6065    
   1639000   248.68753     -2877.1207     -772.53404      937.34447     -1939.7762      1652.1708    
   1640000   254.52267     -2898.1314     -787.55431      958.63406     -1939.4973      1546.1795    
   1641000   249.27183     -2880.5879     -765.56571      939.47629     -1941.1117      1708.3581    
   1642000   257.02189     -2906.6014     -778.98969      967.75247     -1938.8489      1642.9807    
   1643000   259.50997     -2916.1459     -782.46154      976.83026     -1939.3156      1611.4074    
   1644000   252.78507     -2892.5786     -782.26199      952.29441     -1940.2842      1656.3995    
   1645000   245.35865     -2864.5852     -776.25333      925.199       -1939.3862      1558.818     
   1646000   256.16114     -2904.2114     -777.50556      964.61202     -1939.5994      1592.7758    
   1647000   251.54585     -2887.4343     -768.21049      947.7731      -1939.6612      1677.7435    
   1648000   251.5372      -2885.6866     -760.15139      947.74154     -1937.9451      1674.4773    
   1649000   256.22597     -2904.0812     -782.96778      964.84857     -1939.2326      1602.8346    
   1650000   252.8853      -2893.265      -779.20164      952.6601      -1940.6049      1556.2209    
   1651000   256.69218     -2905.9797     -770.44423      966.54952     -1939.4302      1720.9758    
   1652000   253.43901     -2893.9153     -763.74517      954.68031     -1939.235       1700.8112    
   1653000   256.80348     -2905.6765     -792.1044       966.9556      -1938.7209      1504.3119    
   1654000   251.13306     -2885.5536     -782.89539      946.26704     -1939.2866      1576.2257    
   1655000   249.54262     -2879.8515     -775.19313      940.46428     -1939.3872      1569.3359    
   1656000   253.97982     -2898.5975     -786.29598      956.65344     -1941.944       1569.1343    
   1657000   256.93612     -2909.692      -794.32185      967.43957     -1942.2524      1553.8755    
   1658000   255.61302     -2905.5189     -779.73776      962.61221     -1942.9067      1568.6357    
   1659000   255.17872     -2904.9917     -796.07332      961.02766     -1943.9641      1502.5188    
   1660000   258.43909     -2916.0657     -775.27634      972.92315     -1943.1425      1679.4107    
   1661000   254.29437     -2902.1437     -769.82524      957.80109     -1944.3426      1703.2515    
   1662000   244.94653     -2867.3201     -752.58073      923.69541     -1943.6246      1727.0708    
   1663000   255.58664     -2905.2945     -758.1435       962.51596     -1942.7786      1740.3673    
   1664000   254.04749     -2899.9825     -762.5193       956.90034     -1943.0822      1667.0719    
   1665000   253.80257     -2899.1685     -751.55892      956.00677     -1943.1617      1777.1179    
   1666000   249.64599     -2884.947      -780.89521      940.84143     -1944.1056      1571.6877    
   1667000   250.13351     -2884.0579     -773.37869      942.62015     -1941.4378      1618.1888    
   1668000   257.44755     -2909.5619     -775.32209      969.3055      -1940.2564      1634.9357    
   1669000   256.41281     -2904.1055     -769.25719      965.53025     -1938.5752      1594.2334    
   1670000   254.53202     -2897.0481     -757.27524      958.66816     -1938.38        1777.9442    
   1671000   256.78121     -2904.749      -782.92117      966.87437     -1937.8746      1589.6581    
   1672000   249.27628     -2875.126      -761.51509      939.49255     -1935.6334      1666.1508    
   1673000   262.3496      -2921.9053     -771.393        987.1907      -1934.7146      1718.8541    
   1674000   248.46667     -2871.9543     -758.96514      936.53868     -1935.4156      1756.3964    
   1675000   262.33545     -2923.835      -796.05636      987.13907     -1936.696       1540.201     
   1676000   261.02685     -2919.2499     -766.94891      982.36462     -1936.8853      1742.9276    
   1677000   256.89994     -2904.1092     -767.0641       967.30756     -1936.8017      1697.9505    
   1678000   257.29451     -2903.8069     -767.8287       968.74713     -1935.0598      1639.9454    
   1679000   256.66011     -2900.73       -785.14994      966.43253     -1934.2975      1572.4845    
   1680000   246.67188     -2864.3604     -753.4966       929.99034     -1934.3701      1684.5502    
   1681000   260.02675     -2910.8972     -776.21414      978.71574     -1932.1814      1615.3109    
   1682000   259.6863      -2910.0571     -792.72748      977.4736      -1932.5835      1503.2392    
   1683000   255.60566     -2895.9906     -774.46591      962.58534     -1933.4052      1578.2578    
   1684000   248.68974     -2869.4835     -774.85647      937.35255     -1932.1309      1617.135     
   1685000   252.73595     -2882.3397     -781.01702      952.11517     -1930.2246      1558.8949    
   1686000   257.53668     -2900.5443     -759.89982      969.63071     -1930.9136      1761.845     
   1687000   255.85649     -2892.8226     -779.39327      963.5005      -1929.3221      1616.4609    
   1688000   263.86208     -2921.8883     -781.98739      992.70901     -1929.1793      1604.7323    
   1689000   261.68013     -2914.3977     -792.3126       984.74812     -1929.6496      1534.315     
   1690000   257.00231     -2898.4317     -770.76768      967.68105     -1930.7507      1647.5711    
   1691000   259.85435     -2909.1621     -800.82445      978.08676     -1931.0753      1454.3745    
   1692000   256.08846     -2894.9406     -765.48525      964.34686     -1930.5937      1666.3397    
   1693000   256.99594     -2898.4007     -776.83877      967.6578      -1930.743       1622.141     
   1694000   249.55777     -2873.3627     -774.74504      940.51955     -1932.8432      1637.5101    
   1695000   254.98208     -2894.0756     -785.07596      960.31023     -1933.7653      1604.2859    
   1696000   264.00023     -2928.0703     -760.78278      993.21305     -1934.8573      1762.8557    
   1697000   255.4928      -2894.9535     -772.34117      962.1736      -1932.7799      1650.7643    
   1698000   254.6993      -2892.6746     -773.37191      959.27849     -1933.3961      1685.1645    
   1699000   249.57797     -2873.1981     -781.64399      940.59327     -1932.6048      1569.8104    
   1700000   255.15878     -2890.7846     -766.96637      960.95492     -1929.8297      1661.1238    
   1701000   258.57538     -2905.0472     -772.89982      973.42039     -1931.6268      1647.4657    
   1702000   251.71949     -2881.8777     -774.7481       948.40662     -1933.471       1623.5466    
   1703000   262.90456     -2923.8675     -775.8036       989.21548     -1934.6521      1664.9532    
   1704000   253.00764     -2888.3378     -784.92153      953.10646     -1935.2313      1547.427     
   1705000   259.90648     -2912.6754     -785.45136      978.27694     -1934.3984      1578.2477    
   1706000   252.23757     -2884.7408     -768.87452      950.29682     -1934.444       1688.2834    
   1707000   257.35193     -2901.171      -777.86277      968.95664     -1932.2143      1564.4225    
   1708000   252.96005     -2887.7101     -780.03899      952.93281     -1934.7773      1615.0446    
   1709000   262.51875     -2922.1019     -784.65817      987.80785     -1934.2941      1610.7055    
   1710000   257.06178     -2899.8408     -768.59223      967.89803     -1931.9427      1722.563     
   1711000   260.00243     -2909.6392     -781.57951      978.62702     -1931.0122      1630.1274    
   1712000   264.14911     -2925.3292     -781.98942      993.75623     -1931.573       1617.1245    
   1713000   262.0712      -2917.4555     -778.62668      986.17497     -1931.2805      1667.4081    
   1714000   263.76928     -2922.3179     -780.67644      992.37043     -1929.9474      1669.0813    
   1715000   252.84818     -2885.6715     -780.23232      952.52467     -1933.1469      1569.6932    
   1716000   255.81219     -2896.5163     -781.07497      963.33888     -1933.1774      1599.5172    
   1717000   253.19057     -2885.8947     -765.30179      953.77386     -1932.1209      1665.1245    
   1718000   261.81042     -2918.7729     -768.32174      985.2235      -1933.5494      1709.9521    
   1719000   256.51543     -2900.6177     -777.50102      965.90466     -1934.7131      1598.0904    
   1720000   254.50419     -2890.6634     -774.81959      958.56664     -1932.0968      1607.7886    
   1721000   255.99381     -2897.1301     -764.99689      964.00151     -1933.1285      1716.7426    
   1722000   251.80504     -2882.6882     -764.74728      948.71876     -1933.9695      1681.3227    
   1723000   256.49269     -2898.1292     -783.24679      965.82171     -1932.3075      1562.218     
   1724000   256.74445     -2899.8973     -777.37624      966.74024     -1933.1571      1637.1079    
   1725000   248.186       -2870.2642     -774.52706      935.51465     -1934.7496      1587.5064    
   1726000   250.8609      -2879.9442     -768.17851      945.27403     -1934.6702      1681.2463    
   1727000   255.02005     -2896.2101     -790.10367      960.44876     -1935.7613      1496.1288    
   1728000   247.53322     -2868.1404     -779.76258      933.13295     -1935.0075      1546.6549    
   1729000   249.12266     -2870.5573     -760.63829      938.93203     -1931.6253      1676.0772    
   1730000   252.9536      -2883.7583     -778.48368      952.90927     -1930.849       1578.9097    
   1731000   253.15279     -2882.3753     -766.26976      953.63603     -1928.7393      1706.4424    
   1732000   252.04338     -2875.1647     -775.60994      949.58833     -1925.5764      1638.1368    
   1733000   244.3443      -2846.6021     -759.91828      921.49814     -1925.104       1672.394     
   1734000   254.92797     -2886.6693     -771.18773      960.11279     -1926.5565      1609.1248    
   1735000   252.55784     -2876.2842     -763.32849      951.46535     -1924.8189      1706.3808    
   1736000   252.55151     -2875.2764     -779.01121      951.44225     -1923.8341      1556.8299    
   1737000   254.05207     -2879.5204     -777.52788      956.91705     -1922.6034      1528.9936    
   1738000   255.25924     -2884.0563     -762.71469      961.32142     -1922.7349      1710.7296    
   1739000   251.26077     -2871.5546     -770.08342      946.73296     -1924.8217      1656.7474    
   1740000   250.17047     -2869.3651     -761.9028       942.755       -1926.6101      1709.5182    
   1741000   251.75905     -2874.035      -768.74548      948.55094     -1925.484       1647.7575    
   1742000   256.95027     -2892.6924     -785.10395      967.49117     -1925.2012      1539.6906    
   1743000   257.98598     -2895.9112     -786.22505      971.26996     -1924.6412      1577.455     
   1744000   254.8624      -2881.2771     -769.27339      959.87355     -1921.4035      1641.4935    
   1745000   251.10652     -2868.3353     -762.48887      946.17019     -1922.1651      1661.009     
   1746000   256.19073     -2886.1954     -787.37372      964.71999     -1921.4754      1526.0774    
   1747000   253.57094     -2874.0881     -765.33751      955.16164     -1918.9265      1628.6366    
   1748000   254.55037     -2876.3154     -778.54943      958.7351      -1917.5803      1606.0776    
   1749000   263.8722      -2910.8429     -775.53543      992.74593     -1918.097       1688.51      
   1750000   251.42504     -2864.9983     -750.83003      947.33231     -1917.666       1769.582     
   1751000   256.03473     -2880.656      -792.6119       964.15081     -1916.5052      1519.6551    
   1752000   258.65776     -2892.1096     -782.15801      973.72096     -1918.3887      1560.9066    
   1753000   257.8757      -2889.2329     -785.8347       970.86761     -1918.3653      1588.2609    
   1754000   253.82583     -2873.8384     -777.60451      956.09161     -1917.7468      1628.7904    
   1755000   257.74427     -2888.5202     -772.95926      970.38809     -1918.1321      1662.2187    
   1756000   262.60904     -2906.0299     -764.68464      988.13726     -1917.8926      1676.0181    
   1757000   260.06602     -2897.77       -762.43707      978.85904     -1918.911       1711.5507    
   1758000   260.14829     -2897.0442     -772.02821      979.15918     -1917.885       1709.32      
   1759000   259.23315     -2894.4136     -789.04682      975.82028     -1918.5933      1552.5964    
   1760000   255.1838      -2880.9889     -798.71304      961.04619     -1919.9427      1449.9601    
   1761000   255.4226      -2881.186      -781.99154      961.91746     -1919.2685      1559.5568    
   1762000   253.19102     -2872.7889     -776.12134      953.77549     -1919.0134      1600.8554    
   1763000   259.19422     -2894.7955     -752.57928      975.67824     -1919.1173      1815.537     
   1764000   253.27284     -2872.6912     -761.41497      954.07402     -1918.6172      1650.5285    
   1765000   264.91713     -2916.2679     -778.32954      996.55835     -1919.7095      1622.7824    
   1766000   255.10028     -2879.9358     -762.17921      960.74148     -1919.1943      1732.0552    
   1767000   254.59339     -2880.6731     -778.15935      958.89207     -1921.781       1589.5162    
   1768000   263.94605     -2914.8279     -777.0287       993.01538     -1921.8125      1658.8148    
   1769000   254.50325     -2881.971      -767.12571      958.5632      -1923.4078      1674.6172    
   1770000   242.4909      -2835.6313     -754.12811      914.736       -1920.8953      1691.9924    
   1771000   261.91505     -2904.7291     -785.87797      985.60524     -1919.1239      1576.7954    
   1772000   255.63813     -2881.9562     -770.97295      962.70381     -1919.2524      1619.0009    
   1773000   255.27301     -2878.9702     -773.50142      961.37168     -1917.5985      1574.6922    
   1774000   254.63538     -2875.7953     -740.73631      959.04528     -1916.75        1871.9444    
   1775000   257.82507     -2889.4139     -758.36256      970.68289     -1918.7311      1743.6419    
   1776000   258.93953     -2895.0147     -768.4305       974.74903     -1920.2657      1626.2783    
   1777000   260.27601     -2902.9007     -757.87489      979.62519     -1923.2755      1762.385     
   1778000   261.08747     -2908.0796     -769.27531      982.58581     -1925.4938      1660.4193    
   1779000   264.3065      -2918.3179     -784.55473      994.33048     -1923.9874      1583.4347    
   1780000   260.22166     -2905.7759     -774.45672      979.4269      -1926.349       1661.6659    
   1781000   251.22165     -2875.2794     -759.45848      946.59024     -1928.6892      1655.5182    
   1782000   258.97629     -2902.2108     -787.49794      974.88313     -1927.3276      1490.5066    
   1783000   254.3022      -2884.5409     -772.38735      957.82966     -1926.7113      1641.1072    
   1784000   261.06956     -2907.984      -772.16248      982.52045     -1925.4636      1642.6117    
   1785000   257.7802      -2897.5044     -778.67188      970.51919     -1926.9852      1640.447     
   1786000   253.89687     -2881.6004     -783.09638      956.35081     -1925.2496      1598.6845    
   1787000   251.11945     -2867.9911     -746.59781      946.21736     -1921.7737      1793.1321    
   1788000   263.72745     -2912.685      -765.86007      992.21779     -1920.4672      1699.4498    
   1789000   253.68224     -2876.3253     -758.36775      955.56773     -1920.7576      1720.5485    
   1790000   247.49306     -2853.4289     -751.4301       932.98645     -1920.4425      1758.6523    
   1791000   260.32597     -2902.1066     -781.05347      979.80747     -1922.2992      1585.8414    
   1792000   257.28237     -2890.946      -770.70285      968.70285     -1922.2431      1656.4863    
   1793000   249.35727     -2862.38       -773.80148      939.78801     -1922.592       1630.8442    
   1794000   256.88223     -2889.5717     -770.82443      967.24295     -1922.3287      1657.6445    
   1795000   247.62095     -2855.511      -763.84853      933.45305     -1922.058       1638.3848    
   1796000   257.55572     -2890.6643     -778.8224       969.70016     -1920.9641      1585.5655    
   1797000   256.29901     -2885.4314     -762.91012      965.11506     -1920.3163      1738.4997    
   1798000   255.77941     -2884.12       -765.75443      963.21927     -1920.9007      1681.5279    
   1799000   263.87823     -2914.5834     -792.7429       992.7679      -1921.8155      1543.3109    
   1800000   262.30875     -2907.814      -788.21106      987.04164     -1920.7724      1567.7532    
   1801000   260.94984     -2900.3449     -753.92485      982.08366     -1918.2613      1735.6488    
   1802000   262.17758     -2904.4034     -771.56351      986.56309     -1917.8403      1685.9797    
   1803000   252.37348     -2870.2053     -784.82851      950.79269     -1919.4126      1537.4337    
   1804000   263.40967     -2910.9279     -784.06298      991.05839     -1919.8695      1574.1902    
   1805000   263.48272     -2911.0787     -789.22476      991.32489     -1919.7538      1592.6011    
   1806000   259.13589     -2894.8954     -775.22403      975.46545     -1919.4299      1704.7551    
   1807000   258.30805     -2891.7899     -774.81113      972.44505     -1919.3448      1624.3077    
   1808000   258.00474     -2891.1286     -774.36966      971.33844     -1919.7902      1661.4514    
   1809000   263.16932     -2911.3772     -776.95719      990.18146     -1921.1958      1694.0567    
   1810000   253.8494      -2877.1533     -769.93871      956.17761     -1920.9757      1718.106     
   1811000   259.78327     -2896.9128     -765.36314      977.82742     -1919.0854      1710.697     
   1812000   253.76564     -2874.3229     -755.86917      955.87202     -1918.4508      1705.4606    
   1813000   257.25702     -2887.1811     -755.34316      968.61036     -1918.5708      1733.3468    
   1814000   254.75277     -2876.583      -776.24603      959.47358     -1917.1095      1595.2954    
   1815000   265.60052     -2918.5906     -774.12691      999.05172     -1919.5389      1703.1959    
   1816000   256.94635     -2889.5695     -773.79012      967.47688     -1922.0926      1665.434     
   1817000   248.25126     -2857.122      -773.88905      935.75273     -1921.3692      1561.966     
   1818000   259.61952     -2897.3153     -781.8986       977.22997     -1920.0853      1528.5272    
   1819000   254.90375     -2880.9747     -770.23583      960.02441     -1920.9503      1651.7599    
   1820000   261.85661     -2906.6339     -775.79166      985.39202     -1921.2419      1624.7913    
   1821000   252.94797     -2874.124      -774.7392       952.88874     -1921.2353      1633.0314    
   1822000   257.66468     -2894.8503     -783.55269      970.09771     -1924.7526      1565.913     
   1823000   259.5083      -2902.2376     -783.48966      976.82419     -1925.4135      1601.9977    
   1824000   260.87909     -2908.2321     -775.32681      981.82554     -1926.4065      1723.576     
   1825000   260.07821     -2905.7726     -772.07504      978.90352     -1926.8691      1688.7451    
   1826000   254.64628     -2886.8123     -761.57984      959.08503     -1927.7272      1741.519     
   1827000   258.84407     -2900.7433     -777.79757      974.40073     -1926.3425      1587.0309    
   1828000   260.59224     -2906.4769     -776.08492      980.77895     -1925.698       1705.1694    
   1829000   263.99772     -2919.5903     -781.7736       993.20388     -1926.3864      1623.3367    
   1830000   258.97009     -2901.3046     -760.79732      974.86053     -1926.4441      1724.4742    
   1831000   253.54254     -2881.9035     -762.05156      955.05805     -1926.8455      1718.074     
   1832000   262.38692     -2915.0708     -762.95099      987.32686     -1927.7439      1792.5069    
   1833000   256.15223     -2891.8848     -770.6342       964.5795      -1927.3053      1697.7227    
   1834000   257.89844     -2898.0887     -758.34113      970.95059     -1927.1381      1730.8813    
   1835000   256.57394     -2895.9953     -770.97189      966.11813     -1929.8772      1704.1527    
   1836000   252.41476     -2878.858      -761.66182      950.94332     -1927.9147      1653.6878    
   1837000   260.43453     -2905.4038     -773.45121      980.20354     -1925.2002      1685.7014    
   1838000   257.66816     -2895.9248     -767.75963      970.1104      -1925.8144      1666.6943    
   1839000   248.84271     -2863.4157     -774.36901      937.91066     -1925.505       1621.2111    
   1840000   258.24693     -2897.7577     -772.3137       972.22207     -1925.5357      1653.8782    
   1841000   252.42224     -2879.3274     -760.46868      950.97062     -1928.3568      1668.3538    
   1842000   257.81379     -2898.6948     -764.70515      970.64176     -1928.0531      1690.9795    
   1843000   254.80037     -2890.7021     -786.37504      959.64723     -1931.0549      1519.4687    
   1844000   252.78659     -2882.8721     -788.53472      952.29994     -1930.5722      1522.8053    
   1845000   248.29374     -2865.2947     -769.41823      935.90772     -1929.387       1612.7744    
   1846000   260.38535     -2909.4557     -784.54993      980.0241      -1929.4316      1565.9814    
   1847000   260.62744     -2910.8903     -802.00247      980.90738     -1929.9829      1458.7945    
   1848000   258.5705      -2904.2625     -798.24397      973.40261     -1930.8598      1512.037     
   1849000   256.90405     -2898.4602     -784.34998      967.32254     -1931.1376      1583.4225    
   1850000   257.4854      -2901.3506     -793.06633      969.4436      -1931.907       1451.4163    
   1851000   255.14161     -2892.4525     -762.78396      960.89227     -1931.5602      1689.492     
   1852000   257.9973      -2905.0854     -785.7497       971.31129     -1933.7741      1557.8623    
   1853000   253.54993     -2886.3851     -771.21232      955.085       -1931.3001      1657.9675    
   1854000   262.42986     -2919.4243     -772.76582      987.48354     -1931.9408      1645.4393    
   1855000   261.68563     -2916.6557     -785.51074      984.76821     -1931.8875      1582.7015    
   1856000   256.10443     -2893.2195     -767.98294      964.40512     -1928.8143      1661.0571    
   1857000   254.65621     -2889.2146     -779.75829      959.12127     -1930.0934      1603.7442    
   1858000   258.73643     -2905.763      -789.24497      974.008       -1931.755       1548.7269    
   1859000   250.06151     -2875.2222     -786.22173      942.35745     -1932.8648      1518.5621    
   1860000   249.01785     -2869.1039     -770.93818      938.54967     -1930.5542      1576.1444    
   1861000   244.64456     -2851.0913     -760.72933      922.59365     -1928.4977      1644.4794    
   1862000   252.23073     -2880.2532     -758.57857      950.27188     -1929.9814      1743.3896    
   1863000   247.9379      -2866.5819     -766.23687      934.60946     -1931.9725      1619.755     
   1864000   253.42285     -2887.0587     -786.9814       954.62135     -1932.4373      1543.6015    
   1865000   255.63578     -2893.8551     -754.65036      962.69525     -1931.1599      1775.3495    
   1866000   254.09162     -2889.3555     -771.56384      957.06136     -1932.2941      1663.6631    
   1867000   251.76528     -2882.4516     -771.67963      948.57367     -1933.8779      1646.1299    
   1868000   245.87643     -2862.186      -769.40811      927.08816     -1935.0978      1659.931     
   1869000   254.24633     -2891.4938     -777.21086      957.62582     -1933.868       1607.7537    
   1870000   254.41252     -2893.3998     -784.86347      958.23218     -1935.1676      1519.6709    
   1871000   255.74182     -2896.7878     -770.62484      963.08213     -1933.7057      1689.8687    
   1872000   258.36548     -2903.4582     -786.57327      972.65457     -1930.8036      1564.4782    
   1873000   253.62352     -2885.8741     -763.16417      955.3535      -1930.5206      1653.5061    
   1874000   255.15126     -2888.9501     -772.76536      960.92748     -1928.0226      1619.9639    
   1875000   257.62961     -2896.8891     -763.70272      969.96975     -1926.9193      1683.0535    
   1876000   256.36167     -2891.324      -776.30704      965.34366     -1925.9803      1620.1665    
   1877000   253.81623     -2881.4493     -761.60609      956.05658     -1925.3928      1728.5514    
   1878000   261.50638     -2908.2659     -766.78823      984.11418     -1924.1517      1690.5967    
   1879000   252.55302     -2876.9691     -770.1703       951.44777     -1925.5214      1631.4844    
   1880000   257.86888     -2899.3793     -789.16199      970.84275     -1928.5366      1599.5899    
   1881000   252.71846     -2879.7114     -788.21237      952.05136     -1927.6601      1523.4367    
   1882000   257.31188     -2897.6626     -781.55511      968.81052     -1928.852       1605.6608    
   1883000   252.14619     -2878.2431     -780.399        949.96345     -1928.2796      1600.9612    
   1884000   257.75837     -2899.7227     -774.54049      970.43955     -1929.2831      1682.2666    
   1885000   244.4519      -2850.319      -772.90023      921.89071     -1928.4283      1568.3377    
   1886000   246.06227     -2856.4483     -773.26283      927.76618     -1928.6821      1603.5035    
   1887000   256.77909     -2896.4336     -764.46133      966.86662     -1929.5669      1743.3201    
   1888000   256.69282     -2894.0133     -776.1204       966.55188     -1927.4614      1628.2969    
   1889000   259.15826     -2902.0293     -777.50133      975.54707     -1926.4822      1626.6413    
   1890000   249.75622     -2865.788      -786.64743      941.24362     -1924.5444      1542.4349    
   1891000   246.86937     -2854.401      -764.16399      930.71091     -1923.6901      1583.7201    
   1892000   257.46585     -2894.2798     -780.55007      969.37228     -1924.9075      1558.1805    
   1893000   251.47005     -2871.9956     -778.40096      947.49655     -1924.4991      1582.7448    
   1894000   252.25218     -2873.6899     -760.17381      950.35014     -1923.3398      1704.418     
   1895000   255.89073     -2888.2773     -780.27842      963.62544     -1924.6518      1564.88      
   1896000   255.79646     -2887.424      -765.95855      963.2815      -1924.1425      1699.6215    
   1897000   255.98395     -2887.4763     -813.29912      963.96557     -1923.5107      1346.4311    
   1898000   257.55327     -2894.2659     -777.04787      969.69125     -1924.5746      1655.3366    
   1899000   247.48352     -2858.4024     -735.59901      932.95163     -1925.4507      1802.3648    
   1900000   257.34941     -2894.416      -767.13776      968.94745     -1925.4686      1657.5799    
   1901000   253.01626     -2877.662      -752.40542      953.13791     -1924.5241      1841.9538    
   1902000   260.17844     -2904.5951     -761.63365      979.2692      -1925.3259      1748.1285    
   1903000   267.21084     -2931.9446     -778.7049       1004.927      -1927.0177      1647.1356    
   1904000   260.97602     -2908.0827     -786.77203      982.17918     -1925.9035      1569.1846    
   1905000   258.73585     -2898.8766     -773.19567      974.00588     -1924.8707      1623.0615    
   1906000   258.88628     -2900.6912     -789.98455      974.55474     -1926.1364      1493.1827    
   1907000   253.15816     -2876.8667     -779.34511      953.65562     -1923.2111      1612.9555    
   1908000   255.94387     -2887.4602     -766.76042      963.81932     -1923.6409      1738.5416    
   1909000   256.94864     -2890.962      -777.69092      967.48523     -1923.4768      1588.1503    
   1910000   254.72537     -2881.7873     -784.38983      959.37362     -1922.4136      1555.4057    
   1911000   263.31237     -2912.8067     -796.03886      990.70338     -1922.1034      1518.16      
   1912000   254.0699      -2878.2444     -761.63938      956.98212     -1921.2623      1647.2383    
   1913000   262.00403     -2907.8326     -771.96373      985.92987     -1921.9027      1659.6094    
   1914000   264.54828     -2918.0309     -784.57836      995.21262     -1922.8183      1626.0586    
   1915000   255.47145     -2884.6806     -762.75253      962.09568     -1922.5849      1717.3963    
   1916000   260.72521     -2901.6679     -783.38109      981.26409     -1920.4038      1600.9438    
   1917000   255.79517     -2882.0303     -777.97805      963.27677     -1918.7536      1566.9007    
   1918000   252.33717     -2868.0734     -767.13887      950.66022     -1917.4131      1662.032     
   1919000   260.44855     -2895.1643     -758.76559      980.25469     -1914.9096      1705.9114    
   1920000   250.18245     -2856.0313     -751.46403      942.7987      -1913.2326      1743.2845    
   1921000   256.11036     -2875.7588     -787.5783       964.42677     -1911.332       1517.4692    
   1922000   246.83362     -2843.3309     -744.95767      930.58047     -1912.7504      1766.4235    
   1923000   257.92289     -2882.0376     -752.07716      971.03978     -1910.9979      1728.7377    
   1924000   259.09999     -2884.3473     -770.7412       975.33447     -1909.0129      1670.4668    
   1925000   253.87252     -2865.3614     -757.16126      956.26197     -1909.0994      1746.5814    
   1926000   258.15561     -2882.1297     -772.57713      971.88887     -1910.2409      1655.6414    
   1927000   259.33009     -2886.7397     -770.95161      976.17399     -1910.5657      1759.3531    
   1928000   253.75439     -2864.2806     -765.21818      955.83099     -1908.4496      1650.0815    
   1929000   257.81678     -2879.5529     -770.37683      970.65265     -1908.9002      1602.881     
   1930000   258.54523     -2882.9659     -777.48385      973.31042     -1909.6554      1615.4567    
   1931000   259.69352     -2886.0565     -769.61409      977.49997     -1908.5565      1629.9923    
   1932000   252.07212     -2858.4029     -767.39103      949.69319     -1908.7097      1626.8383    
   1933000   262.3745      -2895.9647     -791.73881      987.28153     -1908.6832      1503.755     
   1934000   255.04851     -2870.3898     -763.05828      960.5526      -1909.8372      1696.9408    
   1935000   262.29252     -2899.0964     -788.82309      986.98243     -1912.114       1523.6489    
   1936000   244.4915      -2835.7592     -761.01321      922.03523     -1913.724       1650.2077    
   1937000   255.4287      -2876.6557     -768.65277      961.93971     -1914.716       1687.3702    
   1938000   254.53351     -2872.2952     -755.66832      958.67361     -1913.6216      1756.766     
   1939000   257.56292     -2882.7384     -768.43422      969.72644     -1913.012       1666.1024    
   1940000   258.26292     -2884.8171     -780.73151      972.28038     -1912.5367      1545.3121    
   1941000   254.31411     -2873.5698     -755.00072      957.8731      -1915.6967      1781.7112    
   1942000   253.79726     -2871.6328     -773.12502      955.9874      -1915.6454      1645.131     
   1943000   253.91699     -2873.8722     -768.11761      956.4242      -1917.448       1671.935     
   1944000   264.41945     -2909.8487     -777.98381      994.74258     -1915.1061      1619.9043    
   1945000   248.79402     -2852.8015     -760.01912      937.73302     -1915.0685      1666.0368    
   1946000   260.62379     -2893.2497     -789.31969      980.89406     -1912.3557      1531.9474    
   1947000   255.07935     -2874.4136     -767.62681      960.66509     -1913.7485      1669.0235    
   1948000   255.17692     -2874.3963     -769.21104      961.02108     -1913.3752      1627.0947    
   1949000   254.35047     -2871.8479     -761.80804      958.00578     -1913.8421      1662.6483    
   1950000   247.01244     -2845.7834     -763.69582      931.23289     -1914.5506      1705.7093    
   1951000   262.55055     -2903.0468     -770.7683       987.92385     -1915.123       1714.7018    
   1952000   259.30541     -2890.8676     -789.67593      976.08394     -1914.7837      1570.6014    
   1953000   269.49563     -2931.0835     -799.66267      1013.2631     -1917.8204      1516.4856    
   1954000   258.01235     -2889.5275     -777.19305      971.36618     -1918.1613      1618.5301    
   1955000   258.69329     -2891.7669     -779.86312      973.8506      -1917.9163      1564.4991    
   1956000   257.36498     -2884.7158     -764.34429      969.00424     -1915.7115      1693.3108    
   1957000   257.61805     -2887.6698     -781.44908      969.92757     -1917.7422      1538.1695    
   1958000   253.44253     -2872.3689     -767.59553      954.69315     -1917.6757      1682.7443    
   1959000   256.22975     -2885.3024     -776.64686      964.86233     -1920.4401      1648.6518    
   1960000   263.27185     -2911.2408     -784.40167      990.55553     -1920.6853      1630.4733    
   1961000   259.01805     -2899.9134     -785.36978      975.0355      -1924.8779      1580.4838    
   1962000   248.48379     -2862.935      -772.01033      936.60112     -1926.3339      1638.2921    
   1963000   256.43203     -2889.6564     -770.38774      965.60036     -1924.056       1639.6903    
   1964000   256.44225     -2891.7667     -793.61058      965.63766     -1926.129       1572.6855    
   1965000   259.26545     -2903.8464     -786.03207      975.93815     -1927.9083      1598.8973    
   1966000   254.34143     -2888.437      -755.48542      957.97281     -1930.4642      1739.4819    
   1967000   259.08974     -2907.4626     -771.65562      975.29707     -1932.1655      1734.8018    
   1968000   256.55181     -2898.5908     -794.19563      966.03738     -1932.5534      1460.9464    
   1969000   258.9904      -2906.8438     -786.81111      974.93463     -1931.9092      1577.9952    
   1970000   254.15319     -2889.8941     -782.19196      957.286       -1932.6081      1522.8542    
   1971000   259.56708     -2912.3754     -764.45989      977.03864     -1935.3368      1684.6306    
   1972000   252.7376      -2887.5836     -759.26797      952.1212      -1935.4624      1747.0072    
   1973000   249.62985     -2878.3509     -776.34739      940.78253     -1937.5684      1590.7357    
   1974000   254.54505     -2895.1438     -781.28355      958.71572     -1936.4281      1580.0229    
   1975000   251.74132     -2884.2783     -790.21642      948.48626     -1935.7921      1542.5547    
   1976000   255.85723     -2899.0569     -757.16725      963.50321     -1935.5537      1746.2246    
   1977000   254.29738     -2894.427      -788.5151       957.81207     -1936.615       1575.891     
   1978000   258.29223     -2909.9873     -790.17447      972.38733     -1937.6         1572.9642    
   1979000   257.50817     -2908.3705     -768.83999      969.52668     -1938.8438      1720.3578    
   1980000   259.59714     -2913.2585     -789.66344      977.1483      -1936.1103      1522.1473    
   1981000   253.40473     -2890.0568     -787.66751      954.55522     -1935.5016      1555.9836    
   1982000   258.87261     -2910.5382     -779.49768      974.50485     -1936.0334      1558.3082    
   1983000   254.69372     -2896.8493     -772.52022      959.25812     -1937.5912      1654.9562    
   1984000   252.51287     -2892.0385     -777.13826      951.30127     -1940.7372      1664.0606    
   1985000   247.23811     -2871.1622     -776.3201       932.05627     -1939.1059      1581.9098    
   1986000   261.23901     -2921.8518     -787.8602       983.13868     -1938.7131      1584.2186    
   1987000   249.51261     -2881.5116     -757.05759      940.35477     -1941.1568      1773.8705    
   1988000   257.15403     -2909.3887     -763.60618      968.23461     -1941.1541      1778.0104    
   1989000   253.71221     -2894.8521     -777.48281      955.67708     -1939.175       1630.8585    
   1990000   254.34193     -2895.7357     -759.99553      957.97462     -1937.7611      1707.9924    
   1991000   252.78015     -2889.6222     -771.88225      952.27646     -1937.3457      1642.547     
   1992000   239.93853     -2843.5623     -749.77492      905.42364     -1938.1386      1693.4465    
   1993000   253.25555     -2891.2107     -785.79763      954.01095     -1937.1998      1566.9764    
   1994000   258.02095     -2907.7525     -767.44847      971.39758     -1936.3549      1702.6863    
   1995000   252.52549     -2888.651      -767.50508      951.3473      -1937.3037      1679.8829    
   1996000   256.13452     -2901.89       -770.88131      964.51491     -1937.3751      1693.3788    
   1997000   249.92292     -2879.2491     -758.86796      941.85181     -1937.3973      1687.9554    
   1998000   259.73281     -2912.4964     -778.77002      977.64332     -1934.8531      1565.2341    
   1999000   255.86611     -2901.3166     -783.7181       963.53562     -1937.781       1560.2915    
   2000000   256.21444     -2902.2021     -771.49709      964.80648     -1937.3957      1721.2246    
   2001000   259.75474     -2913.7198     -785.44213      977.72331     -1935.9965      1564.6717    
   2002000   263.21026     -2924.1206     -795.20774      990.33082     -1933.7898      1540.6154    
   2003000   256.83801     -2900.7852     -778.80885      967.08161     -1933.7036      1654.7791    
   2004000   260.07976     -2913.4664     -783.94137      978.90917     -1934.5572      1600.0659    
   2005000   250.20832     -2878.9881     -757.79113      942.89309     -1936.095       1721.1426    
   2006000   258.40805     -2909.092      -788.81136      972.80991     -1936.2821      1570.0533    
   2007000   252.43291     -2888.6797     -756.62979      951.00955     -1937.6701      1767.2887    
   2008000   255.76036     -2899.7577     -781.79588      963.14977     -1936.608       1564.5825    
   2009000   258.31655     -2909.5365     -770.39062      972.47607     -1937.0604      1687.3       
   2010000   254.90069     -2896.0641     -784.32936      960.01328     -1936.0508      1542.4211    
   2011000   259.14225     -2911.9093     -747.24084      975.48863     -1936.4207      1786.9268    
   2012000   250.40989     -2882.1591     -771.72861      943.62852     -1938.5306      1649.0729    
   2013000   251.927       -2888.9503     -776.82552      949.16373     -1939.7866      1640.5378    
   2014000   252.24505     -2889.6254     -773.84677      950.32414     -1939.3012      1653.1384    
   2015000   256.39291     -2903.3506     -773.76238      965.45763     -1937.893       1710.5459    
   2016000   250.15439     -2878.8046     -777.20149      942.69631     -1936.1083      1606.4329    
   2017000   257.10353     -2904.9097     -783.78375      968.05034     -1936.8594      1524.5896    
   2018000   248.37809     -2875.3912     -739.35733      936.21549     -1939.1757      1828.8167    
   2019000   254.30584     -2898.5162     -786.72934      957.84295     -1940.6733      1488.0436    
   2020000   246.9737      -2868.911      -779.10294      931.09155     -1937.8194      1536.9673    
   2021000   257.74225     -2910.1288     -778.66617      970.38072     -1939.7481      1639.8505    
   2022000   255.06259     -2901.089      -776.65053      960.60397     -1940.485       1644.4808    
   2023000   248.59517     -2879.9709     -753.90131      937.00749     -1942.9634      1769.6647    
   2024000   254.6731      -2902.7488     -776.00279      959.18289     -1943.5659      1589.3512    
   2025000   254.73165     -2904.6533     -780.16714      959.39653     -1945.2567      1619.3109    
   2026000   255.31542     -2905.8293     -776.01317      961.5264      -1944.3029      1669.6448    
   2027000   256.80378     -2913.0701     -778.98657      966.95669     -1946.1134      1639.12      
   2028000   254.07976     -2903.7092     -767.77368      957.01809     -1946.6912      1744.4621    
   2029000   258.34523     -2919.833      -782.48463      972.58069     -1947.2523      1650.9421    
   2030000   252.21071     -2899.1179     -774.73348      950.19885     -1948.919       1585.7229    
   2031000   253.07546     -2900.9869     -788.33406      953.35388     -1947.633       1498.5145    
   2032000   251.82942     -2895.973      -776.97216      948.80771     -1947.1653      1607.3783    
   2033000   255.10262     -2909.2401     -783.34304      960.75        -1948.4901      1582.8045    
   2034000   252.64229     -2900.0951     -759.60256      951.77345     -1948.3217      1697.5132    
   2035000   245.666       -2874.2833     -770.93914      926.3204      -1947.9629      1649.0198    
   2036000   249.54531     -2888.0301     -776.49884      940.47411     -1947.556       1573.7619    
   2037000   253.55907     -2902.6702     -759.54578      955.11836     -1947.5519      1647.062     
   2038000   257.45658     -2916.5227     -781.33317      969.33844     -1947.1842      1586.2995    
   2039000   255.2278      -2910.1086     -768.71765      961.20671     -1948.9018      1666.7244    
   2040000   246.17688     -2875.0734     -750.59233      928.18435     -1946.889       1772.8549    
   2041000   253.78594     -2904.4418     -785.40421      955.94609     -1948.4957      1582.4287    
   2042000   256.55156     -2914.477      -782.94423      966.03649     -1948.4405      1547.4814    
   2043000   249.85043     -2888.9567     -770.56783      941.58733     -1947.3694      1664.7907    
   2044000   252.6269      -2898.5292     -770.17297      951.71731     -1946.8119      1690.2053    
   2045000   247.28158     -2878.9165     -754.10809      932.21486     -1946.7016      1690.3684    
   2046000   249.07579     -2884.6615     -787.38549      938.76105     -1945.9005      1558.8614    
   2047000   258.17557     -2917.4974     -764.73879      971.96168     -1945.5357      1699.2428    
   2048000   258.44236     -2919.0331     -771.24572      972.9351      -1946.098       1640.6271    
   2049000   247.38373     -2879.2271     -776.49304      932.58756     -1946.6395      1580.6539    
   2050000   248.95183     -2883.0799     -773.98779      938.30877     -1944.7711      1605.6466    
   2051000   250.99438     -2889.8009     -750.53031      945.76106     -1944.0399      1784.767     
   2052000   256.33658     -2906.6995     -777.37981      965.25212     -1941.4474      1602.154     
   2053000   246.99554     -2873.4798     -761.34473      931.17123     -1942.3086      1668.6942    
   2054000   259.68039     -2918.9643     -775.23306      977.45205     -1941.5123      1637.6052    
   2055000   248.14901     -2877.2711     -769.21204      935.37968     -1941.8915      1674.0432    
   2056000   244.60973     -2862.7134     -775.2921       922.46658     -1940.2468      1602.758     
   2057000   253.54034     -2893.4262     -762.85778      955.05        -1938.3762      1690.1399    
   2058000   245.87624     -2866.403      -761.10311      927.08745     -1939.3155      1691.4784    
   2059000   244.85724     -2865.8435     -758.85223      923.3696      -1942.4739      1687.2247    
   2060000   257.53069     -2912.2447     -780.45012      969.60884     -1942.6359      1606.5835    
   2061000   252.23876     -2894.9907     -778.38584      950.30116     -1944.6896      1554.3512    
   2062000   255.33998     -2905.1855     -763.4152       961.61601     -1943.5695      1715.133     
   2063000   250.30187     -2888.4845     -768.00811      943.23441     -1945.2501      1680.1174    
   2064000   253.49238     -2899.3076     -758.3174       954.87501     -1944.4326      1761.0516    
   2065000   258.67033     -2918.3348     -777.13672      973.76685     -1944.5679      1635.4945    
   2066000   251.74048     -2892.9699     -776.53157      948.48319     -1944.4867      1553.378     
   2067000   252.95063     -2897.2364     -785.98697      952.89844     -1944.338       1575.9899    
   2068000   252.30726     -2895.3399     -788.5453       950.55109     -1944.7888      1557.1336    
   2069000   256.91997     -2911.2092     -790.13819      967.38063     -1943.8285      1490.2473    
   2070000   252.82047     -2897.755      -771.30421      952.42356     -1945.3314      1632.1716    
   2071000   250.68883     -2890.0637     -778.14734      944.64625     -1945.4175      1609.764     
   2072000   258.22838     -2915.1979     -793.22844      972.15436     -1943.0436      1565.1771    
   2073000   259.93107     -2921.9133     -793.86702      978.36665     -1943.5466      1540.0577    
   2074000   253.73212     -2895.6014     -769.09201      955.74971     -1939.8517      1709.2757    
   2075000   252.75473     -2890.0474     -764.70813      952.18372     -1937.8637      1696.9832    
   2076000   254.24485     -2893.2903     -762.64163      957.62042     -1935.6699      1710.1291    
   2077000   254.36333     -2893.7774     -766.97504      958.05271     -1935.7247      1646.9184    
   2078000   255.72888     -2898.5892     -759.84248      963.03493     -1935.5543      1773.4808    
   2079000   250.64413     -2881.3281     -772.10845      944.48314     -1936.8449      1611.9799    
   2080000   253.96557     -2896.0061     -781.63828      956.60148     -1939.4047      1589.7749    
   2081000   260.07863     -2918.3951     -756.0095       978.90504     -1939.49        1815.1415    
   2082000   251.36646     -2886.7905     -768.1338       947.11858     -1939.6719      1680.6604    
   2083000   254.69769     -2898.8098     -777.21983      959.2726      -1939.5372      1610.6348    
   2084000   252.24891     -2889.999      -788.71352      950.33822     -1939.6608      1539.7636    
   2085000   249.34393     -2882.0535     -782.63277      939.73937     -1942.3142      1567.5516    
   2086000   250.27594     -2885.9096     -782.47883      943.1398      -1942.7698      1538.2955    
   2087000   254.84273     -2902.6209     -801.67066      959.80181     -1942.8191      1534.0096    
   2088000   248.30439     -2879.4895     -768.21347      935.94657     -1943.543       1656.5509    
   2089000   254.87406     -2902.8709     -774.3155       959.91611     -1942.9548      1641.3294    
   2090000   245.41575     -2868.8147     -760.81195      925.40734     -1943.4074      1687.2582    
   2091000   253.77611     -2896.7211     -767.21415      955.91022     -1940.8109      1690.8847    
   2092000   254.77618     -2900.4092     -773.13064      959.55897     -1940.8503      1629.7243    
   2093000   250.14438     -2882.7317     -755.19665      942.65982     -1940.0719      1711.1241    
   2094000   254.84776     -2899.8575     -785.48384      959.82016     -1940.0374      1544.8936    
   2095000   250.06318     -2882.0065     -766.12124      942.36356     -1939.6429      1745.649     
   2096000   254.05505     -2897.6294     -775.5477       956.92794     -1940.7015      1668.1213    
   2097000   257.59821     -2910.3509     -745.05916      969.85519     -1940.4957      1832.0861    
   2098000   259.97951     -2918.5626     -777.54727      978.54339     -1940.0192      1667.769     
   2099000   251.98216     -2890.2285     -786.91107      949.36497     -1940.8635      1510.746     
   2100000   255.82109     -2903.9264     -758.34561      963.37133     -1940.555       1769.6747    
   2101000   256.09724     -2905.8366     -758.50178      964.3789      -1941.4577      1723.6329    
   2102000   258.89422     -2912.986      -768.62779      974.58371     -1938.4023      1776.278     
   2103000   251.01262     -2883.7291     -751.0612       945.82759     -1937.9015      1825.6951    
   2104000   253.71991     -2895.1887     -778.90662      955.70517     -1939.4835      1611.9761    
   2105000   249.40008     -2878.9331     -760.2355       939.94422     -1938.9889      1688.3309    
   2106000   254.98901     -2897.684      -779.5305       960.33551     -1937.3485      1612.4382    
   2107000   249.69656     -2878.8959     -772.69431      941.02594     -1937.8699      1606.6153    
   2108000   250.5884      -2883.0719     -775.40793      944.27984     -1938.7921      1617.3122    
   2109000   256.774       -2904.688      -760.68334      966.84806     -1937.8399      1747.841     
   2110000   255.32496     -2899.6355     -779.58481      961.56123     -1938.0743      1628.5035    
   2111000   256.19218     -2902.2725     -760.73296      964.72529     -1937.5472      1700.9074    
   2112000   247.29946     -2868.2435     -755.6545       932.28009     -1935.9634      1693.4496    
   2113000   247.06145     -2867.1709     -769.98194      931.41171     -1935.7592      1626.3246    
   2114000   258.66772     -2908.4662     -790.43125      973.7573      -1934.7089      1589.9073    
   2115000   249.38762     -2872.5076     -774.10881      939.89876     -1932.6089      1561.8131    
   2116000   253.84532     -2890.1025     -766.98905      956.16274     -1933.9397      1727.5571    
   2117000   253.45171     -2889.6882     -797.36767      954.72665     -1934.9615      1475.8822    
   2118000   252.36568     -2886.3826     -763.23536      950.76423     -1935.6184      1730.7322    
   2119000   252.37015     -2883.2223     -780.03987      950.78056     -1932.4417      1611.1324    
   2120000   255.90662     -2896.5997     -773.35554      963.68341     -1932.9163      1695.96      
   2121000   259.46826     -2910.9664     -795.19717      976.67809     -1934.2883      1462.912     
   2122000   257.0131      -2901.9475     -775.85775      967.72043     -1934.2271      1598.1765    
   2123000   247.08998     -2865.4011     -783.32944      931.51581     -1933.8852      1489.2396    
   2124000   254.66638     -2896.7624     -758.87865      959.15838     -1937.604       1674.9314    
   2125000   261.22951     -2919.2472     -782.74547      983.10402     -1936.1432      1629.1644    
   2126000   258.97234     -2910.1876     -776.26301      974.86873     -1935.3189      1665.0537    
   2127000   260.28991     -2915.5366     -793.97028      979.67589     -1935.8607      1554.6988    
   2128000   257.36974     -2905.0644     -779.05296      969.02161     -1936.0428      1605.715     
   2129000   246.59111     -2866.3564     -757.10478      929.69565     -1936.6608      1710.7161    
   2130000   251.16087     -2882.776      -766.75592      946.36848     -1936.4076      1722.1659    
   2131000   262.95067     -2926.4687     -790.10636      989.38371     -1937.085       1573.5111    
   2132000   255.25098     -2900.7316     -764.0708       961.29131     -1939.4403      1764.8935    
   2133000   252.1455      -2887.7426     -779.34557      949.96091     -1937.7817      1589.6293    
   2134000   251.19871     -2882.5218     -761.07353      946.50656     -1936.0153      1673.1651    
   2135000   254.94919     -2896.9387     -760.48073      960.19021     -1936.7485      1728.1152    
   2136000   256.45582     -2901.6692     -778.76797      965.68716     -1935.9821      1608.8107    
   2137000   259.52906     -2911.5396     -786.23166      976.89994     -1934.6397      1619.5589    
   2138000   249.23054     -2874.7996     -781.93855      939.32567     -1935.4739      1565.9471    
   2139000   254.53918     -2893.9461     -776.26514      958.6943      -1935.2518      1638.3056    
   2140000   253.41839     -2892.2016     -782.58609      954.60509     -1937.5966      1598.0591    
   2141000   253.54955     -2893.6198     -765.71235      955.08361     -1938.5362      1783.1715    
   2142000   254.19071     -2894.9607     -769.35823      957.42288     -1937.5378      1629.5742    
   2143000   253.75671     -2890.9436     -790.02829      955.83943     -1935.1041      1525.8351    
   2144000   250.01916     -2876.3694     -759.12711      942.20293     -1934.1665      1663.7703    
   2145000   258.28124     -2906.4304     -805.02037      972.34723     -1934.0832      1440.3217    
   2146000   252.79727     -2886.6056     -789.65841      952.33892     -1934.2667      1542.4437    
   2147000   245.42758     -2859.5619     -762.96389      925.45051     -1934.1114      1683.3172    
   2148000   252.52528     -2884.2888     -779.54951      951.34657     -1932.9422      1552.3951    
   2149000   256.09842     -2896.9746     -792.79146      964.38321     -1932.5914      1540.4586    
   2150000   248.90053     -2871.2515     -771.52144      938.1216      -1933.1299      1630.3822    
   2151000   254.1022      -2890.8346     -789.44857      957.09995     -1933.7347      1475.7033    
   2152000   257.12842     -2902.4227     -789.5716       968.14117     -1934.2815      1536.7499    
   2153000   254.20844     -2892.1567     -766.59927      957.48757     -1934.6691      1683.2044    
   2154000   253.83797     -2889.7406     -777.22167      956.1359      -1933.6047      1619.8108    
   2155000   258.49066     -2908.1111     -800.36533      973.11133     -1934.9998      1480.831     
   2156000   258.91918     -2909.6927     -787.20294      974.67476     -1935.018       1552.5763    
   2157000   250.63254     -2879.2902     -774.62692      944.44087     -1934.8494      1590.2225    
   2158000   257.48212     -2903.3897     -777.87141      969.43162     -1933.9581      1592.3395    
   2159000   253.64275     -2886.8831     -794.2179       955.42367     -1931.4595      1413.4183    
   2160000   261.30856     -2915.0246     -773.75185      983.39246     -1931.6321      1686.1798    
   2161000   259.23724     -2906.8497     -759.41304      975.83521     -1931.0145      1712.5194    
   2162000   265.22865     -2930.5362     -787.31794      997.69496     -1932.8413      1603.1706    
   2163000   258.76367     -2907.2591     -777.38065      974.1074      -1933.1517      1630.9768    
   2164000   253.36477     -2889.4313     -777.90426      954.40944     -1935.0218      1590.4685    
   2165000   253.21125     -2890.8622     -765.09155      953.84933     -1937.0129      1698.5655    
   2166000   249.45064     -2879.1238     -759.47415      940.1287      -1938.9951      1698.9083    
   2167000   249.8704      -2881.9901     -750.01208      941.66018     -1940.3299      1809.8114    
   2168000   248.53319     -2876.0326     -773.48564      936.78138     -1939.2513      1631.8859    
   2169000   254.24226     -2896.7251     -782.18032      957.61096     -1939.1141      1567.9815    
   2170000   252.2577      -2889.5069     -747.87689      950.37028     -1939.1367      1777.5321    
   2171000   255.58324     -2901.4602     -787.27442      962.50355     -1938.9567      1530.749     
   2172000   252.25295     -2889.055      -777.13181      950.35295     -1938.7021      1635.9023    
   2173000   260.2491      -2919.0365     -777.45259      979.52698     -1939.5095      1603.6233    
   2174000   256.66078     -2905.971      -778.75248      966.43498     -1939.536       1571.7375    
   2175000   255.52434     -2901.0458     -759.147        962.28867     -1938.7571      1807.1308    
   2176000   255.44013     -2898.5679     -763.06643      961.9814      -1936.5865      1681.5276    
   2177000   259.79108     -2912.7323     -792.11014      977.85592     -1934.8764      1560.9063    
   2178000   250.7222      -2876.2052     -761.22372      944.76798     -1931.4372      1693.4975    
   2179000   257.0398      -2899.5543     -795.74335      967.81784     -1931.7365      1474.7418    
   2180000   258.10602     -2902.7412     -764.29713      971.70795     -1931.0333      1727.6115    
   2181000   256.70778     -2895.6129     -792.55539      966.60645     -1929.0065      1540.9538    
   2182000   255.04097     -2890.4136     -778.17898      960.52506     -1929.8886      1617.3692    
   2183000   250.38284     -2871.2172     -777.08851      943.52983     -1927.6874      1604.5454    
   2184000   259.0239      -2901.7212     -798.54552      975.05684     -1926.6643      1470.7837    
   2185000   253.23921     -2879.0132     -773.64581      953.95135     -1925.0618      1664.118     
   2186000   253.39622     -2879.4001     -778.06077      954.5242      -1924.8759      1574.2929    
   2187000   253.39616     -2879.0434     -783.3254       954.52398     -1924.5194      1586.0054    
   2188000   253.46446     -2879.3672     -774.55363      954.77317     -1924.594       1658.9168    
   2189000   250.98028     -2873.4155     -760.53288      945.70962     -1927.7058      1685.6377    
   2190000   255.07879     -2889.005      -789.68977      960.66307     -1928.342       1482.4049    
   2191000   258.35318     -2900.5791     -769.60015      972.6097      -1927.9694      1674.2108    
   2192000   247.60135     -2863.16       -773.70897      933.38154     -1929.7784      1576.2058    
   2193000   252.82061     -2880.3962     -767.85024      952.42406     -1927.9722      1651.0367    
   2194000   258.07935     -2900.5614     -778.05855      971.61065     -1928.9507      1652.6857    
   2195000   256.95571     -2898.0076     -767.53791      967.51104     -1930.4966      1632.4401    
   2196000   250.13835     -2872.4267     -761.80865      942.6378      -1929.7889      1636.4925    
   2197000   247.96079     -2862.2026     -738.82818      934.69297     -1927.5097      1837.5684    
   2198000   252.02858     -2877.7948     -752.34167      949.53435     -1928.2604      1735.0112    
   2199000   255.64311     -2889.4674     -781.09579      962.722       -1926.7454      1559.5439    
   2200000   258.07555     -2896.9822     -778.82778      971.59676     -1925.3854      1577.9905    
   2201000   255.48723     -2888.3182     -779.94407      962.15328     -1926.1649      1573.0165    
   2202000   257.91532     -2898.141      -769.37674      971.01219     -1927.1288      1727.4753    
   2203000   253.11341     -2880.4925     -766.71701      953.49236     -1927.0002      1673.8433    
   2204000   262.5528      -2915.2291     -786.87711      987.93208     -1927.297       1622.643     
   2205000   257.46545     -2895.368      -784.5134       969.37082     -1925.9972      1562.4719    
   2206000   249.9397      -2865.3188     -780.72218      941.91305     -1923.4058      1523.9523    
   2207000   251.02447     -2867.8819     -793.90207      945.87082     -1922.011       1465.5555    
   2208000   254.65444     -2882.0862     -775.15362      959.11481     -1922.9714      1627.8948    
   2209000   260.26774     -2903.8962     -778.33928      979.59502     -1924.3011      1641.2553    
   2210000   258.6243      -2898.2291     -773.55517      973.59889     -1924.6303      1601.8818    
   2211000   260.30117     -2905.8801     -763.63773      979.71696     -1926.1632      1735.0917    
   2212000   254.14486     -2882.3392     -767.34535      957.25561     -1925.0836      1669.4449    
   2213000   262.68958     -2914.4853     -782.87177      988.4311      -1926.0542      1606.278     
   2214000   263.03099     -2915.6322     -789.05897      989.67674     -1925.9555      1550.4519    
   2215000   267.45834     -2932.535      -787.48458      1005.83       -1926.705       1563.4058    
   2216000   259.15755     -2902.5705     -777.95483      975.54445     -1927.026       1593.8537    
   2217000   253.13448     -2878.32       -762.99244      953.56922     -1924.7507      1707.3939    
   2218000   256.87564     -2893.7321     -795.06806      967.21888     -1926.5133      1494.0538    
   2219000   262.3017      -2912.577      -757.94663      987.01594     -1925.5611      1775.269     
   2220000   253.19441     -2880.4551     -778.82484      953.78788     -1926.6672      1523.2568    
   2221000   247.51233     -2859.5003     -746.03329      933.05673     -1926.4436      1750.9351    
   2222000   255.01513     -2883.9631     -782.43244      960.43079     -1923.5323      1570.2947    
   2223000   259.67868     -2900.9973     -743.72484      977.4458      -1923.5515      1885.4934    
   2224000   247.85339     -2856.7853     -760.20783      934.3011      -1922.4842      1699.3194    
   2225000   258.93137     -2897.6686     -776.87285      974.71926     -1922.9494      1581.5843    
   2226000   253.10732     -2875.59       -767.39045      953.47013     -1922.1198      1630.4844    
   2227000   254.58959     -2883.4972     -763.32673      958.87822     -1924.6189      1689.9851    
   2228000   257.09922     -2893.1156     -775.95694      968.03462     -1925.081       1700.9623    
   2229000   254.08068     -2883.5036     -775.15885      957.02144     -1926.4822      1628.5693    
   2230000   257.40419     -2896.2088     -769.54919      969.14732     -1927.0615      1677.7323    
   2231000   261.66588     -2911.8765     -783.84819      984.69612     -1927.1804      1606.9764    
   2232000   263.48283     -2917.1072     -781.92897      991.32529     -1925.7819      1661.0785    
   2233000   263.55222     -2916.2827     -782.4326       991.57849     -1924.7042      1631.323     
   2234000   254.73045     -2883.3678     -772.49188      959.39214     -1923.9757      1653.7882    
   2235000   259.23768     -2901.585      -773.84826      975.83683     -1925.7481      1655.2829    
   2236000   255.06156     -2885.9247     -773.24219      960.60018     -1925.3245      1619.7034    
   2237000   256.63381     -2891.3191     -766.58972      966.33657     -1924.9825      1646.2267    
   2238000   252.19585     -2875.5329     -758.68872      950.14461     -1925.3883      1696.0137    
   2239000   249.85396     -2867.5135     -770.21465      941.6002      -1925.9133      1632.226     
   2240000   254.00535     -2882.9861     -778.08486      956.74662     -1926.2395      1620.742     
   2241000   260.42224     -2904.8582     -772.62221      980.15869     -1924.6995      1655.1771    
   2242000   254.75678     -2881.3944     -770.5596       959.48822     -1921.9061      1688.6579    
   2243000   255.3217      -2882.1116     -766.88016      961.54934     -1920.5622      1714.9353    
   2244000   251.53823     -2866.7321     -769.0786       947.74529     -1918.9868      1609.1335    
   2245000   259.37601     -2896.0229     -795.3207       976.34152     -1919.6813      1540.6708    
   2246000   247.40798     -2850.3678     -758.63282      932.67602     -1917.6918      1671.0044    
   2247000   250.64314     -2861.2728     -780.991        944.47953     -1916.7933      1565.8623    
   2248000   257.24708     -2886.4457     -804.18745      968.5741      -1917.8716      1425.6184    
   2249000   255.6777      -2881.0762     -756.97132      962.84819     -1918.228       1714.2661    
   2250000   257.22667     -2884.6396     -759.11475      968.49964     -1916.1399      1723.5722    
   2251000   250.63        -2862.0241     -776.09635      944.43159     -1917.5926      1535.9123    
   2252000   257.2594      -2884.203      -793.1276       968.61904     -1915.5839      1482.7018    
   2253000   260.08375     -2894.6727     -770.11816      978.92371     -1915.749       1690.1829    
   2254000   260.85107     -2899.6813     -775.20429      981.72331     -1917.958       1617.3157    
   2255000   257.38633     -2887.3406     -784.33587      969.08216     -1918.2584      1593.2647    
   2256000   259.42388     -2895.9435     -770.93957      976.51617     -1919.4273      1654.8915    
   2257000   256.83292     -2885.8562     -760.98841      967.06303     -1918.7932      1711.2408    
   2258000   267.41234     -2926.5458     -777.72694      1005.6622     -1920.8836      1672.6425    
   2259000   254.1729      -2878.9555     -776.13764      957.35789     -1921.5976      1610.7052    
   2260000   253.31484     -2873.2604     -767.34291      954.22726     -1919.0331      1651.7181    
   2261000   254.84429     -2878.0958     -755.87609      959.80749     -1918.2883      1756.5092    
   2262000   257.46598     -2888.2614     -771.50925      969.37275     -1918.8887      1609.4451    
   2263000   261.26551     -2902.252      -766.68314      983.23539     -1919.0166      1663.7278    
   2264000   258.46838     -2892.2604     -781.42998      973.03003     -1919.2304      1599.8142    
   2265000   258.16847     -2890.3827     -779.85054      971.93581     -1918.4469      1638.7273    
   2266000   257.34354     -2887.8467     -763.32359      968.92604     -1918.9207      1725.6754    
   2267000   256.51185     -2886.731      -759.46563      965.89161     -1920.8394      1695.391     
   2268000   257.79628     -2893.1188     -765.1335       970.57785     -1922.5409      1699.0975    
   2269000   260.54112     -2902.9954     -773.33839      980.59245     -1922.403       1643.652     
   2270000   257.66558     -2894.6889     -776.66056      970.101       -1924.5879      1601.6243    
   2271000   262.7107      -2912.9372     -778.48422      988.50817     -1924.429       1661.8837    
   2272000   257.90448     -2895.4173     -776.71372      970.97263     -1924.4446      1589.5377    
   2273000   259.47565     -2900.2872     -774.61379      976.70505     -1923.5821      1659.9241    
   2274000   257.33661     -2894.9901     -781.59774      968.90075     -1926.0893      1647.2793    
   2275000   261.7335      -2910.5792     -779.42485      984.94286     -1925.6363      1633.8785    
   2276000   250.26998     -2869.9641     -770.17462      943.11806     -1926.8461      1594.7815    
   2277000   259.30246     -2904.1073     -782.09173      976.07316     -1928.0341      1651.0817    
   2278000   250.33317     -2870.6844     -761.07263      943.34862     -1927.3357      1681.0935    
   2279000   252.37465     -2878.0307     -770.1535       950.79696     -1927.2337      1618.9242    
   2280000   256.18499     -2889.4986     -784.39915      964.69906     -1924.7995      1561.5167    
   2281000   257.13062     -2894.1462     -773.52741      968.14918     -1925.997       1598.7569    
   2282000   261.50864     -2909.9867     -776.54647      984.12244     -1925.8643      1619.7929    
   2283000   250.67507     -2870.4671     -772.72482      944.59604     -1925.871       1598.4808    
   2284000   255.58443     -2891.874      -767.64391      962.50788     -1929.3661      1605.9636    
   2285000   253.37675     -2883.8882     -773.22425      954.45314     -1929.435       1603.4127    
   2286000   256.45933     -2895.5066     -775.78922      965.69997     -1929.8067      1600.7719    
   2287000   248.50065     -2867.1223     -754.31691      936.66263     -1930.4597      1737.7179    
   2288000   257.49582     -2897.5323     -783.50974      969.48161     -1928.0507      1590.2671    
   2289000   256.82659     -2897.2442     -784.71617      967.03992     -1930.2042      1562.8694    
   2290000   251.61713     -2879.2058     -780.94823      948.03315     -1931.1727      1515.5891    
   2291000   259.49004     -2910.0655     -775.08971      976.75757     -1933.3079      1621.2487    
   2292000   256.18707     -2900.5045     -756.68329      964.70665     -1935.7978      1711.8915    
   2293000   252.75245     -2888.8176     -770.48748      952.1754      -1936.6422      1654.7628    
   2294000   248.11029     -2871.5027     -742.6606       935.23841     -1936.2643      1825.1385    
   2295000   263.04631     -2924.4771     -799.11141      989.73266     -1934.7444      1533.7345    
   2296000   250.81659     -2880.5281     -762.59732      945.11237     -1935.4157      1675.268     
   2297000   252.80068     -2886.8876     -764.42899      952.35135     -1934.5363      1692.8425    
   2298000   253.25106     -2887.6914     -750.45084      953.99458     -1933.6968      1830.5776    
   2299000   255.5278      -2896.8102     -775.35429      962.30127     -1934.5089      1629.7508    
   2300000   256.17245     -2900.0291     -768.22528      964.65327     -1935.3758      1687.8722    
   2301000   256.88247     -2904.343      -772.34644      967.2438      -1937.0992      1598.7294    
   2302000   254.14236     -2894.7001     -775.03069      957.24647     -1937.4536      1640.6644    
   2303000   255.2746      -2898.055      -773.13945      961.37748     -1936.6775      1649.9564    
   2304000   249.73831     -2875.9565     -764.50203      941.17825     -1934.7782      1666.9605    
   2305000   259.15858     -2911.6647     -761.9773       975.54822     -1936.1165      1727.9412    
   2306000   247.78945     -2869.7261     -751.37044      934.06783     -1935.6583      1724.8041    
   2307000   252.56987     -2885.6755     -777.524        951.50924     -1934.1663      1573.8256    
   2308000   256.77567     -2900.8977     -787.1735       966.85413     -1934.0436      1560.6588    
   2309000   257.62388     -2904.1001     -779.66919      969.94884     -1934.1513      1589.7809    
   2310000   256.72116     -2900.4427     -753.37569      966.65527     -1933.7875      1828.3102    
   2311000   254.7951      -2894.455      -760.75794      959.628       -1934.827       1694.2672    
   2312000   259.43961     -2910.7474     -792.32652      976.57357     -1934.1738      1529.9471    
   2313000   256.19892     -2900.6073     -789.4263       964.74987     -1935.8574      1533.4406    
   2314000   258.81883     -2910.5121     -769.92755      974.30864     -1936.2034      1669.3833    
   2315000   259.51626     -2913.0318     -766.98198      976.85324     -1936.1786      1728.626     
   2316000   258.75626     -2912.1278     -777.69809      974.08037     -1938.0475      1610.8697    
   2317000   248.39054     -2872.0719     -770.1          936.2609      -1935.811       1567.5916    
   2318000   256.89409     -2903.3299     -783.6877       967.28622     -1936.0437      1554.8916    
   2319000   251.66286     -2885.084      -758.10765      948.20001     -1936.884       1707.0557    
   2320000   256.00198     -2901.9526     -759.65885      964.03133     -1937.9213      1716.883     
   2321000   255.67498     -2899.8711     -764.32162      962.83828     -1937.0328      1703.5837    
   2322000   253.51253     -2891.8031     -767.24524      954.94855     -1936.8546      1673.3654    
   2323000   255.14609     -2897.5381     -763.67828      960.90859     -1936.6295      1701.9673    
   2324000   263.85515     -2930.4145     -796.27249      992.6837      -1937.7308      1510.0746    
   2325000   249.50361     -2877.5264     -783.81372      940.32196     -1937.2044      1521.9538    
   2326000   252.79976     -2890.2662     -787.66052      952.34799     -1937.9182      1529.5217    
   2327000   253.65838     -2893.2173     -749.79885      955.48069     -1937.7366      1824.5237    
   2328000   257.83197     -2909.3863     -774.50742      970.70806     -1938.6782      1604.7221    
   2329000   252.81247     -2891.6915     -763.89625      952.39438     -1939.2971      1680.6301    
   2330000   255.98153     -2901.9091     -776.95111      963.95672     -1937.9524      1663.3207    
   2331000   255.97066     -2899.9478     -778.46698      963.91706     -1936.0308      1598.6713    
   2332000   252.85854     -2887.2215     -778.11567      952.56247     -1934.6591      1550.9529    
   2333000   253.55632     -2887.7587     -762.09822      955.10831     -1932.6504      1720.9126    
   2334000   247.47199     -2866.8302     -771.2361       932.90956     -1933.9207      1614.1608    
   2335000   252.89738     -2886.9886     -776.59924      952.70417     -1934.2844      1658.4853    
   2336000   249.73369     -2876.7914     -743.02139      941.16139     -1935.63        1867.3746    
   2337000   260.4895      -2916.4438     -776.27655      980.40408     -1936.0397      1595.0268    
   2338000   259.83751     -2913.1113     -776.69905      978.02531     -1935.086       1687.8276    
   2339000   263.41101     -2925.9293     -768.44742      991.06326     -1934.8661      1690.5187    
   2340000   250.8217      -2879.7524     -774.46577      945.13101     -1934.6213      1582.2717    
   2341000   257.18256     -2904.4283     -774.15254      968.33871     -1936.0896      1647.5018    
   2342000   257.28914     -2904.6789     -786.03766      968.72754     -1935.9514      1537.7248    
   2343000   255.05225     -2896.2188     -777.02419      960.56622     -1935.6526      1615.2287    
   2344000   255.33825     -2897.4633     -784.21552      961.60972     -1935.8536      1536.2507    
   2345000   261.91213     -2921.4836     -776.06059      985.59457     -1935.8891      1613.8689    
   2346000   253.10849     -2889.7275     -769.04031      953.47441     -1936.2531      1673.7162    
   2347000   250.38304     -2879.1928     -772.01498      943.53057     -1935.6623      1648.7589    
   2348000   254.86723     -2893.5249     -757.3918       959.8912      -1933.6337      1768.141     
   2349000   251.95459     -2882.1986     -768.59789      949.26437     -1932.9343      1661.2154    
   2350000   257.56941     -2903.2164     -771.0549       969.75011     -1933.4663      1637.7425    
   2351000   258.09926     -2902.8724     -772.7559       971.68328     -1931.1891      1619.5616    
   2352000   260.93584     -2914.6299     -771.74503      982.03257     -1932.5973      1641.7683    
   2353000   248.86851     -2871.8417     -764.12438      938.00477     -1933.8369      1682.506     
   2354000   260.13909     -2913.9513     -761.37787      979.12563     -1934.8256      1762.8445    
   2355000   260.73459     -2914.5432     -775.55404      981.29832     -1933.2449      1681.415     
   2356000   251.67776     -2882.2996     -764.70217      948.25435     -1934.0452      1696.9441    
   2357000   254.85959     -2894.8152     -779.31544      959.86332     -1934.9519      1598.8024    
   2358000   249.70067     -2876.8411     -776.58961      941.04093     -1935.8001      1625.514     
   2359000   252.26372     -2886.6834     -776.03923      950.39225     -1936.2912      1619.9725    
   2360000   253.15094     -2890.5418     -760.39001      953.62928     -1936.9125      1678.9552    
   2361000   258.82595     -2911.7981     -756.90867      974.33462     -1937.4635      1754.61      
   2362000   255.34858     -2899.8952     -771.55331      961.64741     -1938.2478      1669.3653    
   2363000   254.17717     -2894.4183     -756.88201      957.3735      -1937.0448      1737.553     
   2364000   255.15535     -2900.903      -792.69698      960.94239     -1939.9606      1507.0799    
   2365000   256.98471     -2906.2512     -762.41006      967.61682     -1938.6344      1760.2495    
   2366000   246.40415     -2867.3985     -767.91953      929.01354     -1938.3849      1633.5528    
   2367000   256.54514     -2902.6888     -770.14428      966.01304     -1936.6758      1631.0247    
   2368000   258.10065     -2906.7458     -775.70685      971.68837     -1935.0574      1643.9798    
   2369000   256.05013     -2898.975      -777.80565      964.207       -1934.768       1595.8856    
   2370000   253.75404     -2890.7365     -786.11192      955.8297      -1934.9068      1598.1778    
   2371000   261.27057     -2916.6685     -788.61703      983.25386     -1933.4146      1550.3453    
   2372000   261.6459      -2919.6604     -777.47105      984.62324     -1935.0372      1623.1916    
   2373000   247.16929     -2867.4241     -778.5378       931.80516     -1935.619       1585.6585    
   2374000   253.17458     -2889.6052     -776.21943      953.71551     -1935.8897      1599.2457    
   2375000   258.26766     -2908.2456     -792.3444       972.29768     -1935.9479      1488.3752    
   2376000   254.65829     -2895.0844     -752.15631      959.12886     -1935.9555      1760.6801    
   2377000   259.16845     -2910.0914     -767.45486      975.58422     -1934.5072      1720.2774    
   2378000   257.61845     -2904.6744     -760.99126      969.92905     -1934.7454      1776.9174    
   2379000   255.9101      -2898.7        -789.25342      963.69611     -1935.0039      1539.0652    
   2380000   258.24526     -2906.2405     -792.12635      972.21598     -1934.0245      1495.2698    
   2381000   248.79363     -2874.1171     -789.67048      937.73159     -1936.3855      1531.5274    
   2382000   255.88081     -2898.2717     -776.53193      963.58923     -1934.6825      1600.6727    
   2383000   251.70594     -2881.7989     -760.48827      948.35717     -1933.4417      1672.0046    
   2384000   255.05793     -2892.8466     -768.76013      960.58695     -1932.2596      1641.822     
   2385000   250.4213      -2876.8692     -760.17279      943.67014     -1933.1991      1729.8151    
   2386000   256.83862     -2898.2493     -775.50789      967.08382     -1931.1655      1590.4919    
   2387000   257.31701     -2901.8552     -791.99691      968.82924     -1933.0259      1473.1535    
   2388000   245.82049     -2859.6195     -754.93993      926.88404     -1932.7354      1738.7558    
   2389000   255.33        -2894.6885     -775.36029      961.57962     -1933.1089      1564.7123    
   2390000   251.8636      -2882.7782     -761.36278      948.9324      -1933.8458      1728.2834    
   2391000   259.22674     -2908.9779     -780.60478      975.79692     -1933.181       1652.2304    
   2392000   260.36765     -2913.9418     -795.46496      979.95954     -1933.9823      1552.5048    
   2393000   258.38937     -2905.3973     -770.2918       972.74173     -1932.6555      1669.6836    
   2394000   253.89605     -2887.4136     -770.73872      956.34783     -1931.0658      1676.5988    
   2395000   256.37497     -2896.4716     -778.58178      965.39218     -1931.0794      1653.1663    
   2396000   255.41852     -2893.2821     -777.79427      961.90256     -1931.3795      1636.8799    
   2397000   256.27197     -2896.4412     -771.68177      965.01638     -1931.4248      1695.1439    
   2398000   258.61916     -2904.2419     -781.20833      973.58013     -1930.6618      1603.591     
   2399000   244.61276     -2854.1399     -753.26177      922.47763     -1931.6623      1671.4754    
   2400000   257.16834     -2899.1531     -773.9262       968.2868      -1930.8663      1613.4471    
   2401000   257.46548     -2900.2706     -774.60318      969.37092     -1930.8996      1648.005     
   2402000   262.21578     -2917.4752     -773.49071      986.70245     -1930.7728      1719.2452    
   2403000   257.95526     -2902.8809     -790.43684      971.15789     -1931.723       1559.5145    
   2404000   258.96923     -2905.5953     -760.79267      974.85739     -1930.7379      1756.2961    
   2405000   258.17156     -2904.1284     -783.0066       971.94707     -1932.1813      1619.6157    
   2406000   263.1334      -2923.4944     -779.44268      990.0504      -1933.444       1674.3357    
   2407000   252.29332     -2883.7303     -765.98156      950.50025     -1933.2301      1667.0834    
   2408000   255.34964     -2891.9923     -782.13125      961.65127     -1930.3411      1584.9063    
   2409000   255.0286      -2890.7232     -770.62429      960.47993     -1930.2432      1660.0393    
   2410000   251.18815     -2877.5125     -770.08743      946.46803     -1931.0445      1620.1026    
   2411000   259.51269     -2906.087      -767.49233      976.84021     -1929.2468      1717.9007    
   2412000   253.61364     -2882.4555     -763.1794       955.31743     -1927.1381      1648.2271    
   2413000   262.92835     -2917.0298     -782.23528      989.30226     -1927.7275      1634.2668    
   2414000   252.29692     -2878.5721     -778.5645       950.51339     -1928.0587      1622.3838    
   2415000   254.0223      -2884.4875     -794.03427      956.80845     -1927.679       1486.2125    
   2416000   255.18732     -2889.7134     -767.40248      961.05904     -1928.6543      1711.5265    
   2417000   262.14759     -2915.0391     -777.35308      986.45367     -1928.5854      1640.8921    
   2418000   258.1425      -2901.878      -800.00206      971.84104     -1930.037       1496.9674    
   2419000   260.27278     -2907.3158     -772.43796      979.61339     -1927.7024      1684.1878    
   2420000   254.2818      -2882.9524     -751.3673       957.75524     -1925.1972      1770.8231    
   2421000   255.46807     -2885.3551     -776.90569      962.08337     -1923.2717      1622.3797    
   2422000   254.29612     -2882.5432     -773.25867      957.80747     -1924.7357      1652.0272    
   2423000   256.63966     -2890.8282     -764.25992      966.35793     -1924.4703      1678.8454    
   2424000   262.46191     -2913.4897     -781.32474      987.60045     -1925.8893      1608.3821    
   2425000   258.20394     -2897.3099     -780.42489      972.0652      -1925.2447      1652.0185    
   2426000   254.39337     -2884.6762     -773.24385      958.1623      -1926.5139      1602.4973    
   2427000   257.36855     -2893.641      -785.60283      969.01729     -1924.6237      1594.3303    
   2428000   254.41316     -2881.2613     -778.60241      958.23449     -1923.0268      1590.5796    
   2429000   257.83733     -2895.0897     -780.5677       970.72762     -1924.3621      1523.3403    
   2430000   262.97469     -2915.3402     -782.08452      989.47133     -1925.8689      1609.9234    
   2431000   256.73966     -2891.5299     -767.85386      966.72276     -1924.8071      1672.5844    
   2432000   254.23727     -2883.5092     -779.97647      957.59276     -1925.9165      1592.3428    
   2433000   255.86315     -2888.0119     -767.27375      963.52481     -1924.487       1699.4156    
   2434000   259.90421     -2901.3769     -758.34665      978.26868     -1923.1083      1780.2199    
   2435000   256.13        -2888.2378     -767.55724      964.49843     -1923.7394      1707.1246    
   2436000   257.35883     -2895.3537     -767.13053      968.98183     -1926.3719      1729.2404    
   2437000   258.54606     -2900.9583     -760.01944      973.31345     -1927.6448      1717.2907    
   2438000   261.40954     -2909.1377     -778.79459      983.76086     -1925.3768      1640.7627    
   2439000   255.31179     -2888.5319     -751.83125      961.51315     -1927.0187      1770.243     
   2440000   256.17293     -2894.1633     -766.68714      964.65503     -1929.5083      1690.7671    
   2441000   257.84551     -2901.8166     -772.48151      970.75746     -1931.0591      1625.6015    
   2442000   255.08569     -2890.8643     -778.01896      960.68824     -1930.176       1594.9106    
   2443000   257.42173     -2899.3063     -775.45262      969.2113      -1930.095       1592.1921    
   2444000   257.43325     -2899.4934     -775.01174      969.25333     -1930.2401      1599.9373    
   2445000   256.66236     -2897.3091     -784.24719      966.44075     -1930.8683      1557.7372    
   2446000   260.63224     -2913.4344     -787.22308      980.92488     -1932.5095      1489.4447    
   2447000   259.17107     -2909.1561     -781.54933      975.5938      -1933.5623      1550.5271    
   2448000   252.00163     -2882.9721     -769.7291       949.43603     -1933.5361      1708.1246    
   2449000   249.08644     -2873.2991     -763.56806      938.7999      -1934.4992      1685.784     
   2450000   254.73523     -2895.3088     -755.81458      959.40956     -1935.8993      1700.4724    
   2451000   256.76503     -2904.0384     -780.15772      966.81532     -1937.2231      1648.9467    
   2452000   248.96331     -2873.4651     -754.9897       938.35067     -1935.1144      1699.7243    
   2453000   257.58112     -2907.9127     -778.26995      969.79285     -1938.1198      1611.8607    
   2454000   258.74667     -2912.5959     -783.45389      974.04537     -1938.5505      1641.3005    
   2455000   253.1069      -2891.5767     -759.82389      953.46861     -1938.1081      1681.9751    
   2456000   249.81844     -2881.6303     -778.72641      941.47062     -1940.1597      1586.6485    
   2457000   257.06317     -2906.9231     -785.4061       967.9031      -1939.02        1561.4176    
   2458000   249.9955      -2876.9832     -768.33683      942.11662     -1934.8666      1632.9674    
   2459000   258.64523     -2906.0957     -790.98724      973.67524     -1932.4204      1526.6802    
   2460000   252.94554     -2887.086      -787.18818      952.87989     -1934.2061      1547.8455    
   2461000   252.98909     -2888.3652     -772.20378      953.03877     -1935.3264      1607.5678    
   2462000   263.13842     -2922.7756     -785.52071      990.06872     -1932.7069      1581.2007    
   2463000   253.1706      -2884.8531     -775.87658      953.70099     -1931.1521      1623.9228    
   2464000   260.30443     -2908.7989     -769.41983      979.72886     -1929.07        1679.0191    
   2465000   254.4232      -2886.8431     -779.58897      958.27113     -1928.5719      1610.6481    
   2466000   258.23184     -2899.5632     -786.04012      972.167       -1927.3962      1575.6303    
   2467000   259.2814      -2900.1044     -781.815        975.99634     -1924.1081      1592.2796    
   2468000   257.88485     -2895.8845     -783.96112      970.90099     -1924.9835      1538.29      
   2469000   253.05289     -2880.0827     -779.997        953.27152     -1926.8111      1601.6509    
   2470000   264.35816     -2919.9369     -776.57466      994.51895     -1925.4179      1638.7838    
   2471000   251.23066     -2872.056      -773.41118      946.62312     -1925.4329      1592.8508    
   2472000   253.67319     -2881.7862     -759.7308       955.5347      -1926.2515      1698.7184    
   2473000   245.25913     -2851.3785     -773.40224      924.83593     -1926.5426      1605.1737    
   2474000   255.62793     -2891.5105     -778.74505      962.66661     -1928.8439      1614.8902    
   2475000   251.54548     -2878.9491     -763.17636      947.77175     -1931.1773      1639.6641    
   2476000   250.51857     -2874.9546     -769.60239      944.02503     -1930.9295      1611.3146    
   2477000   252.96718     -2885.0651     -756.72179      952.95884     -1932.1063      1728.285     
   2478000   257.33609     -2901.6433     -776.54297      968.89886     -1932.7444      1608.6499    
   2479000   252.43497     -2882.6316     -767.79549      951.01706     -1931.6145      1666.5638    
   2480000   250.18142     -2876.0029     -775.4113       942.79495     -1933.208       1625.6844    
   2481000   252.29045     -2883.1827     -774.723        950.48976     -1932.6929      1650.2073    
   2482000   255.36156     -2894.386      -781.01705      961.69477     -1932.6912      1574.2438    
   2483000   260.63488     -2913.4758     -789.90615      980.9345      -1932.5413      1598.4869    
   2484000   255.41303     -2896.6431     -783.24918      961.88253     -1934.7606      1552.6195    
   2485000   256.14336     -2900.0692     -785.43596      964.54716     -1935.5221      1621.606     
   2486000   254.02011     -2892.839      -786.27915      956.80046     -1936.0386      1590.2876    
   2487000   252.886       -2888.825      -787.31661      952.66265     -1936.1624      1513.863     
   2488000   255.45398     -2898.3684     -767.3414       962.03194     -1936.3365      1694.2978    
   2489000   247.29692     -2868.4222     -782.32544      932.27083     -1936.1514      1605.2884    
   2490000   252.69833     -2889.8351     -766.80355      951.97791     -1937.8572      1678.1711    
   2491000   254.00798     -2892.1995     -776.32211      956.75618     -1935.4433      1647.4244    
   2492000   251.85567     -2887.2737     -768.30362      948.90348     -1938.3702      1640.0469    
   2493000   259.49827     -2915.0164     -779.28882      976.78758     -1938.2288      1614.1021    
   2494000   256.10103     -2903.9935     -794.04718      964.39271     -1939.6008      1524.2324    
   2495000   259.9896      -2918.4231     -759.7306       978.58021     -1939.8429      1760.4409    
   2496000   248.11925     -2872.3941     -764.46105      935.27109     -1937.123       1674.3793    
   2497000   249.85161     -2876.4148     -763.35139      941.59164     -1934.8231      1658.5952    
   2498000   255.19839     -2895.5516     -776.85799      961.09944     -1934.4522      1554.4718    
   2499000   251.3314      -2881.5659     -778.7494       946.99066     -1934.5753      1620.9205    
   2500000   248.5188      -2870.9916     -773.05318      936.72886     -1934.2628      1602.2232    
   2501000   257.06987     -2900.3418     -771.69211      967.92753     -1932.4143      1596.7941    
   2502000   259.98544     -2908.1499     -772.98003      978.56502     -1929.5849      1618.0208    
   2503000   256.12623     -2894.2658     -761.44847      964.48468     -1929.7811      1715.7877    
   2504000   255.59017     -2893.7666     -770.49179      962.52883     -1931.2378      1665.0615    
   2505000   262.92371     -2919.4032     -778.7813       989.28535     -1930.1179      1627.9521    
   2506000   252.31584     -2880.4416     -763.08072      950.58242     -1929.8592      1716.3226    
   2507000   263.75726     -2922.2391     -804.82521      992.32655     -1929.9125      1446.1021    
   2508000   256.58374     -2896.8996     -768.65768      966.15388     -1930.7457      1704.6248    
   2509000   258.96099     -2904.4923     -776.22267      974.82733     -1929.6649      1652.9838    
   2510000   254.29086     -2888.8554     -773.50039      957.7883      -1931.0671      1582.3104    
   2511000   258.12976     -2904.1827     -786.39352      971.79457     -1932.3881      1537.1272    
   2512000   250.9776      -2878.2013     -772.20508      945.69982     -1932.5014      1567.0711    
   2513000   253.39248     -2888.099      -776.62227      954.51053     -1933.5884      1615.8242    
   2514000   252.62461     -2886.144      -769.82814      951.70896     -1934.435       1606.2931    
   2515000   253.61672     -2889.9234     -780.61089      955.32869     -1934.5947      1623.8579    
   2516000   248.57916     -2869.0217     -779.17471      936.9491      -1932.0726      1623.1486    
   2517000   254.43419     -2892.8457     -771.14942      958.31123     -1934.5345      1639.7973    
   2518000   259.04353     -2908.6023     -770.75139      975.12847     -1933.4739      1621.3689    
   2519000   259.54599     -2909.2522     -771.23783      976.96171     -1932.2905      1673.8662    
   2520000   252.85411     -2883.57       -762.8675       952.54627     -1931.0237      1728.9231    
   2521000   258.16134     -2906.0336     -767.80269      971.90979     -1934.1238      1719.1646    
   2522000   260.47298     -2915.0036     -764.0048       980.34382     -1934.6598      1730.9111    
   2523000   254.14636     -2893.8253     -782.63457      957.26107     -1936.5642      1569.2239    
   2524000   256.70313     -2902.3123     -792.00315      966.5895      -1935.7228      1523.1307    
   2525000   258.08329     -2908.3071     -771.03172      971.625       -1936.6821      1597.7005    
   2526000   262.21239     -2925.6091     -796.58181      986.69008     -1938.919       1567.7802    
   2527000   264.60709     -2932.2264     -798.08616      995.42718     -1936.7992      1512.7766    
   2528000   255.15104     -2898.209      -774.48934      960.92668     -1937.2823      1622.0634    
   2529000   255.8801      -2899.2412     -762.53731      963.58664     -1935.6545      1686.9732    
   2530000   251.64918     -2884.9846     -782.55829      948.1501      -1936.8345      1615.3071    
   2531000   255.17434     -2896.8475     -766.55267      961.01168     -1935.8359      1709.5535    
   2532000   252.44313     -2885.6842     -771.87736      951.04683     -1934.6374      1628.1119    
   2533000   251.01491     -2880.2144     -769.16251      945.83594     -1934.3784      1639.9774    
   2534000   256.84132     -2899.9846     -778.3678       967.09366     -1932.891       1625.6292    
   2535000   258.35349     -2904.1847     -774.29757      972.61085     -1931.5739      1628.6073    
   2536000   260.04693     -2911.1574     -771.34636      978.78938     -1932.3681      1658.0795    
   2537000   259.82209     -2909.2904     -797.69703      977.96905     -1931.3214      1546.224     
   2538000   245.83954     -2860.3004     -758.35398      926.95357     -1933.3469      1717.2163    
   2539000   260.30557     -2911.8325     -774.28004      979.73302     -1932.0995      1662.0996    
   2540000   257.98555     -2903.1739     -767.99645      971.26842     -1931.9055      1668.1966    
   2541000   266.10119     -2931.4572     -772.11186      1000.8784     -1930.5788      1634.242     
   2542000   254.43828     -2886.4751     -777.40934      958.32614     -1928.149       1558.9785    
   2543000   259.0105      -2903.8783     -777.56575      975.00794     -1928.8703      1591.8288    
   2544000   257.06924     -2898.32       -768.32414      967.92523     -1930.3948      1701.0414    
   2545000   250.61187     -2874.8325     -781.11461      944.36545     -1930.4671      1519.9522    
   2546000   256.30711     -2895.9932     -771.26916      965.1446      -1930.8486      1707.8124    
   2547000   249.94958     -2871.5149     -764.865        941.94908     -1929.5658      1651.452     
   2548000   262.10174     -2916.4421     -768.60516      986.28637     -1930.1557      1698.0292    
   2549000   256.45393     -2895.7964     -792.67849      965.68027     -1930.1161      1498.4546    
   2550000   261.41448     -2913.322      -775.6492       983.7789      -1929.5431      1600.9291    
   2551000   259.23637     -2905.7934     -772.20274      975.83204     -1929.9614      1712.8273    
   2552000   256.79496     -2896.0824     -768.72901      966.92454     -1929.1578      1691.3561    
   2553000   252.89488     -2881.7819     -758.04313      952.69503     -1929.0869      1684.1595    
   2554000   254.91355     -2890.5213     -766.40452      960.06017     -1930.4611      1678.7114    
   2555000   247.569       -2861.462      -759.48602      933.2635      -1928.1985      1725.0466    
   2556000   253.4336      -2881.6479     -759.59428      954.66057     -1926.9873      1729.8307    
   2557000   254.36513     -2884.293      -791.27129      958.05926     -1926.2337      1489.6476    
   2558000   254.7013      -2884.6088     -772.13916      959.28578     -1925.323       1624.8312    
   2559000   256.73756     -2894.8682     -781.6212       966.7151      -1928.1531      1580.5796    
   2560000   258.5066      -2900.5967     -780.14496      973.16948     -1927.4273      1564.705     
   2561000   245.76072     -2853.1818     -770.59967      926.66596     -1926.5158      1604.5287    
   2562000   251.73512     -2874.6178     -777.13595      948.46364     -1926.1541      1576.2763    
   2563000   256.00983     -2890.7679     -752.32865      964.05998     -1926.7079      1817.1713    
   2564000   252.04636     -2876.374      -734.20117      949.59919     -1926.7748      1874.2832    
   2565000   258.26981     -2897.3958     -781.99184      972.30553     -1925.0903      1541.0682    
   2566000   249.11942     -2859.6774     -766.72581      938.92025     -1920.7571      1590.6821    
   2567000   262.03885     -2904.8963     -765.87158      986.05694     -1918.8393      1696.5537    
   2568000   250.60526     -2862.9791     -733.86644      944.34134     -1918.6377      1834.9503    
   2569000   258.96442     -2894.7516     -795.38658      974.83981     -1919.9118      1578.8246    
   2570000   251.43356     -2866.832      -751.07485      947.3634      -1919.4686      1786.7604    
   2571000   250.50941     -2863.6432     -748.72261      943.99162     -1919.6516      1743.2319    
   2572000   254.28125     -2877.6986     -754.3382       957.75322     -1919.9454      1714.3048    
   2573000   253.57336     -2875.3372     -753.64935      955.1705      -1920.1667      1762.5306    
   2574000   255.21077     -2878.3245     -764.0926       961.14459     -1917.1799      1682.932     
   2575000   261.37685     -2902.4206     -793.0237       983.64159     -1918.7791      1529.2704    
   2576000   258.99937     -2891.5926     -778.46462      974.96732     -1916.6253      1602.6367    
   2577000   248.53312     -2853.6747     -770.13345      936.7811      -1916.8936      1629.4256    
   2578000   259.75662     -2897.8386     -784.39709      977.73018     -1920.1084      1520.8368    
   2579000   260.01427     -2898.5801     -783.01151      978.67023     -1919.9098      1506.9186    
   2580000   254.89144     -2878.9891     -761.80166      959.97951     -1919.0096      1688.452     
   2581000   258.08042     -2892.1745     -756.63013      971.61454     -1920.56        1795.8229    
   2582000   260.32875     -2898.2219     -804.12701      979.81761     -1918.4043      1510.5264    
   2583000   257.78428     -2889.2866     -758.42846      970.53409     -1918.7525      1787.7418    
   2584000   255.65978     -2883.6116     -779.01835      962.78283     -1920.8288      1600.6       
   2585000   260.66467     -2901.4461     -790.1028       981.04321     -1920.4029      1512.2273    
   2586000   260.11773     -2896.3459     -790.82863      979.04767     -1917.2983      1530.0458    
   2587000   256.08923     -2883.503      -770.68183      964.34967     -1919.1533      1663.8722    
   2588000   255.93201     -2881.2478     -768.73403      963.77606     -1917.4717      1702.0426    
   2589000   251.70669     -2865.4819     -775.16271      948.35993     -1917.122       1600.0108    
   2590000   250.20674     -2860.911      -760.93697      942.88733     -1918.0237      1678.5961    
   2591000   258.5903      -2893.668      -794.10801      973.47483     -1920.1931      1501.021     
   2592000   257.75107     -2890.2961     -771.9145       970.41292     -1919.8832      1657.2405    
   2593000   254.85339     -2881.8535     -766.63803      959.84068     -1922.0128      1694.4549    
   2594000   262.12035     -2908.3271     -773.36051      986.35428     -1921.9728      1651.6233    
   2595000   266.05945     -2921.5337     -772.4521       1000.7261     -1920.8075      1676.885     
   2596000   254.83081     -2883.1683     -764.69886      959.75832     -1923.4099      1660.7669    
   2597000   253.37733     -2875.8961     -774.95208      954.45527     -1921.4409      1595.0349    
   2598000   255.51447     -2882.6741     -781.23953      962.25266     -1920.4214      1530.8794    
   2599000   257.00492     -2890.1402     -768.34659      967.69055     -1922.4497      1679.7001    
   2600000   257.25642     -2892.2515     -792.51873      968.60819     -1923.6433      1505.1496    
   2601000   253.23223     -2878.2106     -802.29277      953.92587     -1924.2847      1388.0731    
   2602000   254.24964     -2883.2105     -777.28598      957.63789     -1925.5726      1620.7647    
   2603000   249.83873     -2869.6632     -763.14627      941.54463     -1928.1186      1688.2867    
   2604000   251.67051     -2877.543      -766.43687      948.22793     -1929.3151      1675.744     
   2605000   264.86581     -2924.0928     -796.63773      996.37111     -1927.7217      1568.5558    
   2606000   255.91821     -2890.6568     -773.9899       963.7257      -1926.9311      1662.0111    
   2607000   258.54066     -2901.9089     -773.65859      973.29375     -1928.6152      1645.4684    
   2608000   261.92873     -2914.3398     -773.86277      985.65515     -1928.6847      1679.1125    
   2609000   253.10989     -2883.4666     -767.26346      953.4795      -1929.9871      1694.1605    
   2610000   260.31785     -2910.0617     -766.69421      979.77784     -1930.2839      1715.0359    
   2611000   246.97824     -2862.0027     -778.57724      931.10812     -1930.8945      1548.1304    
   2612000   253.43734     -2884.8816     -761.18439      954.67422     -1930.2074      1725.5336    
   2613000   259.48011     -2906.5237     -798.43834      976.72131     -1929.8024      1452.3543    
   2614000   253.9051      -2886.9242     -765.55969      956.38085     -1930.5433      1653.9076    
   2615000   254.34733     -2888.154      -773.38624      957.99431     -1930.1597      1631.2409    
   2616000   254.63273     -2887.63       -784.66021      959.0356      -1928.5944      1593.5433    
   2617000   260.67254     -2907.6954     -785.53837      981.07192     -1926.6234      1553.8327    
   2618000   256.25374     -2891.2721     -770.26121      964.94988     -1926.3222      1638.8329    
   2619000   258.42917     -2899.1923     -775.24708      972.88696     -1926.3053      1658.7887    
   2620000   254.43193     -2885.2287     -764.18515      958.30297     -1926.9257      1720.9121    
   2621000   253.93097     -2885.1941     -782.91857      956.47521     -1928.7189      1545.1462    
   2622000   255.94924     -2893.9404     -770.37044      963.83891     -1930.1015      1654.0458    
   2623000   258.70802     -2902.609      -782.45126      973.90436     -1928.7046      1566.137     
   2624000   264.83534     -2924.8309     -759.39027      996.25995     -1928.5709      1798.1127    
   2625000   259.25874     -2906.8322     -761.75517      975.91367     -1930.9185      1742.2401    
   2626000   255.99643     -2895.2021     -777.16762      964.01107     -1931.191       1632.6517    
   2627000   252.62706     -2884.7272     -779.42875      951.71791     -1933.0093      1579.8972    
   2628000   259.30082     -2909.8279     -766.09937      976.06718     -1933.7607      1684.617     
   2629000   254.64147     -2894.3214     -760.05187      959.06751     -1935.2539      1728.7783    
   2630000   259.10658     -2909.3626     -759.49571      975.35851     -1934.0041      1736.0031    
   2631000   255.04594     -2896.55       -767.77737      960.54321     -1936.0068      1694.7197    
   2632000   250.82578     -2881.3454     -765.13459      945.14591     -1936.1995      1662.9308    
   2633000   257.65058     -2907.5656     -771.13187      970.04626     -1937.5193      1677.0664    
   2634000   250.71778     -2883.6735     -763.22192      944.75186     -1938.9217      1728.7862    
   2635000   258.67838     -2910.1452     -781.09553      973.79619     -1936.3491      1613.2594    
   2636000   261.75339     -2920.9131     -764.6291       985.0154      -1935.8977      1724.8562    
   2637000   253.80242     -2891.4091     -764.86951      956.00621     -1935.4029      1725.2512    
   2638000   251.8525      -2884.3672     -765.24206      948.89189     -1935.4753      1689.5967    
   2639000   254.57111     -2893.8969     -768.99456      958.81077     -1935.0861      1611.1787    
   2640000   249.06517     -2876.9882     -778.32176      938.7223      -1938.2659      1595.8219    
   2641000   256.52618     -2905.7381     -754.84532      965.94388     -1939.7943      1793.945     
   2642000   251.85899     -2889.6254     -761.39899      948.9156      -1940.7098      1699.5225    
   2643000   254.58183     -2903.1759     -775.46056      958.84991     -1944.326       1620.2094    
   2644000   253.70861     -2898.6297     -793.73075      955.66394     -1942.9657      1525.7627    
   2645000   253.43192     -2896.1794     -803.56341      954.65444     -1941.5249      1404.615     
   2646000   256.14605     -2905.7867     -788.64173      964.55698     -1941.2297      1597.6179    
   2647000   258.12647     -2913.1829     -771.57065      971.78254     -1941.4004      1659.1375    
   2648000   255.83956     -2904.3188     -774.95407      963.43873     -1940.88        1638.3482    
   2649000   258.95274     -2917.3059     -776.20771      974.79721     -1942.5086      1614.6027    
   2650000   258.05398     -2913.4166     -770.17615      971.51806     -1941.8985      1707.3415    
   2651000   256.67554     -2906.9541     -792.34788      966.48883     -1940.4653      1557.7858    
   2652000   248.77499     -2879.1599     -760.47776      937.66359     -1941.4963      1664.875     
   2653000   245.41461     -2869.0788     -770.3691       925.40319     -1943.6756      1665.0193    
   2654000   251.21712     -2890.0834     -769.77326      946.57372     -1943.5097      1613.9439    
   2655000   251.82497     -2890.6136     -768.25553      948.79146     -1941.8221      1657.3498    
   2656000   251.84954     -2891.3809     -764.92339      948.88112     -1942.4998      1654.0958    
   2657000   253.31484     -2895.6832     -767.72272      954.22728     -1941.456       1636.3748    
   2658000   265.74782     -2939.8225     -807.28729      999.58915     -1940.2333      1475.3977    
   2659000   250.0275      -2881.8071     -765.36597      942.23339     -1939.5737      1641.1277    
   2660000   251.34584     -2887.363      -755.95434      947.04333     -1940.3197      1688.5502    
   2661000   255.72461     -2904.682      -788.29437      963.01936     -1941.6626      1576.4163    
   2662000   252.84749     -2893.8194     -776.73668      952.52214     -1941.2972      1617.617     
   2663000   259.05217     -2919.0554     -772.08998      975.15999     -1943.8954      1696.8315    
   2664000   255.18507     -2905.3402     -790.04196      961.05082     -1944.2893      1533.1299    
   2665000   253.96594     -2900.4434     -785.98137      956.6028      -1943.8406      1573.1153    
   2666000   255.21115     -2902.6988     -781.44723      961.14596     -1941.5529      1598.6774    
   2667000   249.35372     -2881.7776     -768.71764      939.77507     -1942.0025      1672.908     
   2668000   258.96374     -2916.6131     -775.11519      974.83735     -1941.7757      1608.0116    
   2669000   254.66295     -2899.315      -781.82758      959.14588     -1940.1691      1563.6731    
   2670000   254.19564     -2900.4067     -766.78364      957.44089     -1942.9658      1720.1131    
   2671000   255.93709     -2907.344      -791.07352      963.79459     -1943.5494      1539.9708    
   2672000   257.69335     -2915.2189     -784.02362      970.20232     -1945.0166      1612.9473    
   2673000   247.55205     -2879.068      -775.31136      933.20166     -1945.8663      1608.2194    
   2674000   244.25888     -2867.6144     -782.52784      921.18649     -1946.4279      1548.7537    
   2675000   251.29396     -2892.3609     -783.8311       946.85408     -1945.5068      1557.6531    
   2676000   253.85265     -2902.704      -774.1772       956.18947     -1946.5145      1707.6485    
   2677000   255.4814      -2906.4246     -773.66763      962.13199     -1944.2926      1628.478     
   2678000   253.87563     -2898.5157     -767.08575      956.27333     -1942.2424      1685.7763    
   2679000   254.65196     -2901.4139     -776.92268      959.10578     -1942.3081      1590.0547    
   2680000   246.02585     -2872.7299     -753.58531      927.6333      -1945.0966      1741.6379    
   2681000   257.27094     -2912.7428     -766.24778      968.66116     -1944.0816      1731.2944    
   2682000   254.70507     -2902.8244     -772.06254      959.29954     -1943.5248      1632.9261    
   2683000   253.50487     -2897.4093     -782.78504      954.92059     -1942.4887      1572.0123    
   2684000   260.51857     -2922.3998     -771.58219      980.51017     -1941.8896      1685.5933    
   2685000   254.19856     -2894.8407     -770.83338      957.45154     -1937.3892      1654.4812    
   2686000   248.82745     -2874.3142     -765.49081      937.85499     -1936.4593      1653.4939    
   2687000   263.49546     -2925.9149     -801.78134      991.37137     -1934.5435      1495.8616    
   2688000   257.82836     -2903.991      -791.30085      970.69491     -1933.2961      1532.5363    
   2689000   250.85379     -2879.5111     -773.91943      945.24808     -1934.2631      1651.8109    
   2690000   263.4002      -2925.25       -777.33554      991.02382     -1934.2262      1651.1193    
   2691000   255.93585     -2897.542      -772.78034      963.79005     -1933.752       1629.2228    
   2692000   256.53203     -2899.2689     -777.04273      965.96521     -1933.3037      1650.8191    
   2693000   257.49334     -2902.339      -774.9937       969.47256     -1932.8664      1633.7365    
   2694000   251.85395     -2880.2386     -772.53694      948.89719     -1931.3415      1600.8521    
   2695000   254.68931     -2889.6612     -765.52006      959.24205     -1930.4191      1687.1259    
   2696000   254.57127     -2887.9844     -786.52599      958.81136     -1929.173       1556.5248    
   2697000   258.28764     -2903.3972     -774.32154      972.37058     -1931.0266      1625.388     
   2698000   262.43705     -2920.0453     -778.94101      987.50976     -1932.5356      1665.112     
   2699000   254.97648     -2892.6276     -791.19335      960.28979     -1932.3378      1535.8125    
   2700000   254.3737      -2890.6496     -768.69331      958.09054     -1932.559       1645.6999    
   2701000   254.4369      -2891.437      -781.5876       958.32112     -1933.1159      1581.5505    
   2702000   259.12787     -2909.9903     -788.25457      975.43617     -1934.5541      1612.1572    
   2703000   252.56937     -2887.1602     -762.34592      951.50743     -1935.6527      1661.1528    
   2704000   254.91373     -2897.0948     -768.33125      960.06083     -1937.0339      1597.2764    
   2705000   258.55667     -2908.642      -771.34726      973.35213     -1935.2899      1693.9083    
   2706000   252.66875     -2887.929      -786.64048      951.86999     -1936.059       1539.3908    
   2707000   252.06693     -2886.2613     -771.01017      949.67424     -1936.5871      1609.3522    
   2708000   253.29677     -2892.4005     -788.41915      954.16134     -1938.2391      1522.1648    
   2709000   255.07371     -2897.4691     -772.36082      960.64454     -1936.8246      1649.5452    
   2710000   261.55733     -2919.095      -776.38691      984.30009     -1934.7949      1619.8289    
   2711000   254.25767     -2891.5051     -766.8591       957.6672      -1933.8379      1677.3996    
   2712000   262.08357     -2918.9954     -773.29429      986.22007     -1932.7753      1718.4449    
   2713000   258.24753     -2905.0415     -785.20497      972.22426     -1932.8173      1515.0412    
   2714000   257.16598     -2900.0015     -772.48197      968.27821     -1931.7233      1676.24      
   2715000   251.73915     -2882.3345     -749.00419      948.47834     -1933.8562      1786.5696    
   2716000   258.895       -2907.5293     -786.51869      974.58654     -1932.9427      1517.5779    
   2717000   256.63161     -2901.197      -790.56132      966.32855     -1934.8684      1501.853     
   2718000   256.63316     -2903.0771     -781.23665      966.3342      -1936.7429      1601.6922    
   2719000   248.79275     -2875.6366     -775.41005      937.72839     -1937.9082      1599.6571    
   2720000   251.96196     -2888.0668     -769.61985      949.29126     -1938.7755      1665.4122    
   2721000   249.64372     -2880.3352     -757.47855      940.83316     -1939.5021      1705.2057    
   2722000   250.65651     -2883.3024     -764.39501      944.52833     -1938.7741      1698.7106    
   2723000   253.21175     -2894.1764     -771.17589      953.85114     -1940.3252      1661.81      
   2724000   254.2507      -2896.6532     -787.10007      957.64176     -1939.0114      1595.8483    
   2725000   253.18305     -2892.4714     -754.21644      953.74644     -1938.725       1741.1867    
   2726000   255.90694     -2903.6099     -786.93005      963.68456     -1939.9253      1565.9379    
   2727000   253.39115     -2895.1999     -757.05265      954.50567     -1940.6942      1794.9365    
   2728000   255.77716     -2905.431      -776.06588      963.21108     -1942.2199      1660.4452    
   2729000   252.08662     -2891.0318     -793.96813      949.7461      -1941.2857      1478.807     
   2730000   253.13822     -2895.578      -795.92147      953.58288     -1941.9951      1458.7291    
   2731000   250.57803     -2884.7848     -746.84583      944.242       -1940.5428      1837.0675    
   2732000   254.79713     -2902.1112     -766.53054      959.63542     -1942.4758      1714.1272    
   2733000   253.34337     -2896.139      -775.71728      954.33136     -1941.8076      1631.0027    
   2734000   257.81        -2912.9128     -789.36237      970.62791     -1942.2849      1526.4325    
   2735000   256.68155     -2907.8696     -799.5159       966.51077     -1941.3588      1456.2701    
   2736000   256.07523     -2905.2123     -783.86897      964.29858     -1940.9137      1542.7918    
   2737000   252.40102     -2892.9733     -772.18251      950.89317     -1942.0801      1642.5732    
   2738000   260.3937      -2921.3772     -797.05443      980.05457     -1941.3226      1506.7326    
   2739000   254.20933     -2898.3934     -772.83211      957.49081     -1940.9026      1693.8566    
   2740000   258.82238     -2913.1762     -774.21598      974.32161     -1938.8546      1678.1402    
   2741000   258.76614     -2912.3459     -770.15126      974.11639     -1938.2296      1740.4502    
   2742000   251.93738     -2888.1125     -768.78798      949.20158     -1938.9109      1672.5255    
   2743000   252.69287     -2891.8357     -772.5572       951.95801     -1939.8777      1650.3084    
   2744000   252.0859      -2889.6626     -788.14563      949.74346     -1939.9191      1549.2124    
   2745000   256.49277     -2905.2933     -786.38679      965.82199     -1939.4713      1629.7238    
   2746000   254.69188     -2896.9881     -758.89299      959.25143     -1937.7367      1709.6785    
   2747000   252.1785      -2891.5227     -762.84196      950.08133     -1941.4414      1670.9302    
   2748000   255.74134     -2903.8763     -777.86031      963.08038     -1940.7959      1607.0834    
   2749000   260.4772      -2921.6966     -798.80455      980.35923     -1941.3374      1463.7823    
   2750000   255.04048     -2903.817      -776.16867      960.5233      -1943.2937      1638.8126    
   2751000   252.49829     -2893.4485     -766.02566      951.24809     -1942.2004      1649.2695    
   2752000   256.76815     -2908.8511     -773.12466      966.82672     -1942.0244      1649.8462    
   2753000   255.47567     -2905.7782     -766.0259       962.11108     -1943.6671      1681.2367    
   2754000   254.7795      -2904.6568     -777.05583      959.57109     -1945.0857      1618.5978    
   2755000   255.59527     -2907.4019     -790.5582       962.54746     -1944.8545      1494.6791    
   2756000   255.9694      -2908.5346     -796.04801      963.91245     -1944.6222      1453.2191    
   2757000   255.46035     -2907.6473     -787.71632      962.0552      -1945.5921      1602.2681    
   2758000   254.59072     -2901.6775     -784.05431      958.88232     -1942.7952      1550.1419    
   2759000   255.3436      -2902.3295     -771.26311      961.62923     -1940.7003      1676.104     
   2760000   245.25413     -2866.4784     -771.65613      924.81769     -1941.6608      1574.6727    
   2761000   257.82621     -2912.3872     -788.37505      970.68706     -1941.7001      1519.9209    
   2762000   252.28068     -2890.1174     -779.75314      950.45411     -1939.6633      1592.9161    
   2763000   256.63673     -2906.066      -764.75489      966.34724     -1939.7188      1710.2355    
   2764000   249.38691     -2878.2354     -749.46699      939.89616     -1938.3393      1725.4934    
   2765000   252.1906      -2887.4009     -782.34323      950.12545     -1937.2754      1515.3343    
   2766000   252.64627     -2890.4118     -770.58159      951.78798     -1938.6238      1662.5056    
   2767000   255.41181     -2899.5109     -799.90952      961.87809     -1937.6328      1471.3866    
   2768000   263.30882     -2926.9752     -764.55959      990.69044     -1936.2847      1704.6272    
   2769000   255.42861     -2897.0227     -783.03614      961.93938     -1935.0834      1590.3204    
   2770000   247.41396     -2866.7659     -747.83405      932.69785     -1934.068       1736.1873    
   2771000   253.39275     -2888.8436     -764.48146      954.51153     -1934.332       1609.9919    
   2772000   253.41481     -2889.2212     -777.71727      954.59201     -1934.6292      1632.4925    
   2773000   263.99831     -2927.7354     -767.21914      993.20602     -1934.5294      1721.0444    
   2774000   260.35941     -2914.1454     -787.83344      979.92946     -1934.216       1548.2666    
   2775000   257.32455     -2903.5163     -765.08848      968.85673     -1934.6595      1658.5679    
   2776000   255.80383     -2898.19       -784.73343      963.30837     -1934.8816      1571.8959    
   2777000   245.94052     -2861.5866     -758.75349      927.322       -1934.2646      1660.5809    
   2778000   248.9968      -2871.9745     -772.47361      938.47286     -1933.5016      1621.2835    
   2779000   253.45068     -2887.3967     -768.46462      954.72289     -1932.6738      1679.606     
   2780000   254.93712     -2890.1575     -773.90384      960.14617     -1930.0113      1624.0767    
   2781000   252.95151     -2882.9532     -766.68207      952.90164     -1930.0515      1661.2293    
   2782000   258.43795     -2903.1216     -771.26371      972.91898     -1930.2026      1675.9701    
   2783000   255.58853     -2893.7804     -780.04692      962.52285     -1931.2576      1576.5051    
   2784000   249.59345     -2874.3467     -753.78102      940.64974     -1933.6969      1751.1067    
   2785000   256.30986     -2901.2374     -767.33205      965.15462     -1936.0827      1676.0395    
   2786000   257.37922     -2904.5585     -787.58095      969.05619     -1935.5024      1546.6986    
   2787000   254.10948     -2892.2893     -762.07803      957.12654     -1935.1628      1691.6706    
   2788000   253.49025     -2890.8358     -781.47104      954.86725     -1935.9685      1584.7003    
   2789000   251.76017     -2883.8208     -786.23205      948.55506     -1935.2658      1530.8239    
   2790000   248.55078     -2875.5015     -764.76276      936.84556     -1938.6559      1659.2933    
   2791000   249.75621     -2879.9544     -757.49437      941.24358     -1938.7108      1764.0667    
   2792000   250.69231     -2882.6904     -758.77889      944.65895     -1938.0315      1690.5132    
   2793000   250.43222     -2881.6233     -778.45335      943.71        -1937.9133      1563.6099    
   2794000   245.37221     -2864.1805     -767.67069      925.24851     -1938.932       1632.5048    
   2795000   255.57111     -2903.8758     -783.22633      962.45931     -1941.4165      1556.1298    
   2796000   258.95759     -2916.4046     -780.79926      974.81493     -1941.5897      1673.7458    
   2797000   251.80649     -2891.335      -770.30063      948.72405     -1942.6109      1623.3375    
   2798000   253.7807      -2897.9567     -769.13808      955.92695     -1942.0297      1623.0233    
   2799000   249.28102     -2883.3587     -772.5653       939.50984     -1943.8489      1599.0985    
   2800000   256.00355     -2909.2321     -792.02372      964.03707     -1945.1951      1562.2048    
   2801000   251.59513     -2891.128      -772.47844      947.95287     -1943.1752      1632.6376    
   2802000   253.39233     -2894.8828     -768.35891      954.50998     -1940.3728      1616.7774    
   2803000   247.17208     -2871.072      -757.1934       931.81536     -1939.2566      1739.8854    
   2804000   257.77499     -2908.7499     -787.61933      970.50019     -1938.2497      1542.6578    
   2805000   247.08266     -2867.8985     -784.27355      931.48909     -1936.4094      1525.4156    
   2806000   253.30777     -2889.2009     -764.78645      954.20147     -1934.9994      1735.3698    
   2807000   251.21097     -2882.172      -777.12914      946.55126     -1935.6207      1584.928     
   2808000   249.68377     -2876.6        -756.52838      940.97929     -1935.6207      1727.0282    
   2809000   253.8309      -2892.5611     -763.83977      956.11011     -1936.451       1753.8771    
   2810000   253.84331     -2892.0597     -772.65561      956.15538     -1935.9043      1639.8446    
   2811000   262.85743     -2925.5775     -786.57008      989.04352     -1936.534       1617.1345    
   2812000   252.21588     -2884.741      -787.75918      950.21771     -1934.5233      1491.9866    
   2813000   256.65111     -2899.9104     -787.2998       966.39969     -1933.5107      1554.5085    
   2814000   256.86257     -2898.5445     -761.1503       967.17119     -1931.3733      1723.157     
   2815000   251.80659     -2882.0962     -751.19523      948.72442     -1933.3718      1746.5509    
   2816000   261.43477     -2917.948      -777.38587      983.85291     -1934.0951      1630.2172    
   2817000   255.64682     -2899.0727     -776.15378      962.73554     -1936.3372      1646.9054    
   2818000   260.17969     -2914.7483     -778.42212      979.27374     -1935.4745      1625.2165    
   2819000   254.13237     -2891.8771     -747.95644      957.21003     -1934.667       1820.8063    
   2820000   247.02232     -2864.5169     -765.07051      931.26894     -1933.248       1660.8209    
   2821000   250.00188     -2877.5327     -768.40626      942.13989     -1935.3928      1663.8678    
   2822000   250.12624     -2876.1628     -768.7887       942.59363     -1933.5691      1643.2548    
   2823000   252.65143     -2884.2108     -772.81793      951.80681     -1932.404       1733.9286    
   2824000   258.30845     -2906.7431     -786.67193      972.44653     -1934.2966      1552.6687    
   2825000   251.92297     -2885.6765     -773.28666      949.14902     -1936.5275      1691.4573    
   2826000   253.40523     -2890.9192     -782.63229      954.55705     -1936.3621      1597.5893    
   2827000   260.24605     -2919.1316     -787.59302      979.51588     -1939.6157      1610.622     
   2828000   253.69957     -2896.1117     -774.4774       955.63097     -1940.4807      1635.1963    
   2829000   257.64706     -2911.4543     -787.58719      970.03344     -1941.4208      1544.5762    
   2830000   250.74845     -2884.116      -755.77864      944.86378     -1939.2522      1751.1707    
   2831000   245.87498     -2866.6008     -769.19364      927.08287     -1939.5179      1655.0651    
   2832000   258.2023      -2911.0271     -779.67766      972.05922     -1938.9679      1564.7454    
   2833000   257.78124     -2909.9654     -759.49668      970.52297     -1939.4424      1701.1223    
   2834000   266.11774     -2940.4719     -790.02419      1000.9388     -1939.5332      1587.1612    
   2835000   253.17202     -2891.4149     -793.58651      953.70618     -1937.7087      1495.5329    
   2836000   253.01813     -2892.3728     -768.00798      953.14473     -1939.228       1653.8106    
   2837000   251.59888     -2887.724      -756.83773      947.96658     -1939.7575      1691.4987    
   2838000   253.85371     -2896.2981     -756.77844      956.19333     -1940.1048      1726.6061    
   2839000   251.87722     -2891.0192     -769.43877      948.9821      -1942.0371      1634.3486    
   2840000   253.01208     -2893.9372     -788.17023      953.12263     -1940.8145      1509.7674    
   2841000   254.6017      -2899.597      -772.25266      958.92238     -1940.6746      1614.6144    
   2842000   257.15311     -2909.3616     -771.83847      968.23124     -1941.1303      1640.4648    
   2843000   252.65303     -2892.5592     -774.83004      951.81263     -1940.7466      1682.8588    
   2844000   247.44217     -2872.2889     -746.81439      932.80076     -1939.4881      1771.9225    
   2845000   264.20402     -2935.0738     -798.11197      993.95657     -1941.1172      1456.9802    
   2846000   255.09623     -2902.2284     -773.75049      960.72669     -1941.5017      1618.1204    
   2847000   255.09855     -2900.7431     -772.81071      960.73514     -1940.008       1641.1426    
   2848000   248.35465     -2873.1853     -747.58546      936.12995     -1937.0553      1829.9108    
   2849000   255.36749     -2898.7847     -776.28145      961.71638     -1937.0683      1645.5681    
   2850000   250.56193     -2879.9459     -777.48178      944.18324     -1935.7627      1589.8674    
   2851000   252.81947     -2886.6676     -756.85071      952.4199      -1934.2477      1775.5603    
   2852000   256.6331      -2899.2509     -775.0738       966.33398     -1932.9169      1665.1722    
   2853000   255.15134     -2893.9087     -782.37922      960.92775     -1932.9809      1589.0538    
   2854000   258.76126     -2906.0236     -775.66907      974.09858     -1931.925       1666.6793    
   2855000   260.29559     -2910.7368     -775.5356       979.69663     -1931.0402      1710.6469    
   2856000   265.16423     -2926.9442     -765.68849      997.4599      -1929.4843      1820.1888    
   2857000   253.17984     -2885.1667     -766.15385      953.73473     -1931.432       1675.9505    
   2858000   257.86144     -2901.3457     -783.27576      970.81561     -1930.5301      1667.2983    
   2859000   251.14953     -2876.8842     -771.04418      946.32711     -1930.5571      1584.1944    
   2860000   255.0474      -2892.3741     -776.68212      960.54855     -1931.8255      1633.0724    
   2861000   259.31782     -2906.655      -768.89123      976.12921     -1930.5258      1732.098     
   2862000   256.87238     -2899.1299     -763.72464      967.207       -1931.9229      1679.1209    
   2863000   255.24187     -2895.3557     -756.63441      961.25805     -1934.0976      1747.4011    
   2864000   251.45054     -2880.5934     -772.52916      947.42536     -1933.168       1638.1052    
   2865000   253.40638     -2888.0034     -780.0856       954.56125     -1933.4422      1575.5563    
   2866000   256.56854     -2901.494      -771.34017      966.09844     -1935.3956      1657.5037    
   2867000   253.58062     -2888.8977     -790.79455      955.19697     -1933.7007      1498.3765    
   2868000   252.29088     -2882.1815     -748.8615       950.49135     -1931.6901      1808.6477    
   2869000   250.70099     -2872.8928     -773.40693      944.69061     -1928.2022      1679.9068    
   2870000   261.08245     -2913.2887     -782.17306      982.56748     -1930.7212      1604.2629    
   2871000   261.36991     -2913.2479     -764.94113      983.61628     -1929.6316      1727.9358    
   2872000   253.35397     -2885.916      -754.22727      954.37002     -1931.546       1784.8633    
   2873000   252.39607     -2883.7146     -787.95121      950.87513     -1932.8395      1514.2477    
   2874000   253.22296     -2885.5421     -779.29205      953.89203     -1931.6501      1550.9026    
   2875000   261.793       -2916.8318     -783.02732      985.15993     -1931.6719      1617.7721    
   2876000   252.35207     -2882.1972     -765.7715       950.71459     -1931.4826      1730.3665    
   2877000   254.41442     -2886.086      -799.51783      958.23911     -1927.8469      1459.9541    
   2878000   256.36829     -2891.3097     -778.33837      965.3678      -1925.9419      1577.4407    
   2879000   263.65304     -2916.5517     -783.71215      991.94631     -1924.6053      1621.7262    
   2880000   250.86215     -2868.234      -764.62435      945.27861     -1922.9554      1651.5376    
   2881000   259.28485     -2897.937      -773.17589      976.00893     -1921.928       1627.5566    
   2882000   261.98133     -2906.7303     -782.7949       985.84706     -1920.8833      1616.2988    
   2883000   253.4087      -2876.9335     -755.36668      954.56971     -1922.3638      1757.0643    
   2884000   260.24784     -2901.0035     -769.09147      979.5224      -1921.4811      1617.1956    
   2885000   252.20915     -2871.1945     -769.52603      950.19316     -1921.0014      1644.9145    
   2886000   258.41724     -2894.0624     -772.70521      972.84345     -1921.2189      1633.0176    
   2887000   265.52712     -2919.989      -780.71154      998.7839      -1921.2051      1619.4241    
   2888000   264.73155     -2916.3086     -773.61827      995.88126     -1920.4273      1638.7058    
   2889000   259.82197     -2899.4655     -765.12459      977.9686      -1921.4969      1700.7507    
   2890000   261.31326     -2906.1422     -774.55462      983.4096      -1922.7326      1608.5739    
   2891000   248.85924     -2864.1676     -774.25203      937.97097     -1926.1966      1575.0341    
   2892000   257.51044     -2895.835      -780.19409      969.53496     -1926.3         1675.6385    
   2893000   258.15016     -2897.0135     -778.36245      971.869       -1925.1445      1660.6517    
   2894000   255.22866     -2883.471      -771.83387      961.20986     -1922.2611      1664.3475    
   2895000   256.301       -2889.5957     -766.37012      965.12232     -1924.4734      1670.7583    
   2896000   261.06606     -2907.4969     -780.45801      982.50768     -1924.9892      1616.8131    
   2897000   254.9885      -2886.9006     -766.36801      960.33365     -1926.567       1690.4613    
   2898000   260.18898     -2904.4904     -780.58032      979.30763     -1925.1828      1557.4031    
   2899000   253.7322      -2881.0312     -772.05752      955.75001     -1925.2812      1626.3046    
   2900000   256.88586     -2891.3437     -765.65558      967.2562      -1924.0875      1713.7478    
   2901000   249.64407     -2864.2891     -756.37909      940.83441     -1923.4547      1748.305     
   2902000   265.27185     -2920.8364     -774.14929      997.85257     -1922.9838      1640.9567    
   2903000   252.78346     -2875.4086     -774.04198      952.28853     -1923.1201      1629.3375    
   2904000   266.17227     -2923.6528     -786.50846      1001.1378     -1922.515       1607.4925    
   2905000   254.86279     -2884.8703     -773.65878      959.875       -1924.9953      1638.576     
   2906000   250.9212      -2871.9116     -768.8176       945.49406     -1926.4175      1670.4523    
   2907000   258.25161     -2897.0187     -769.99913      972.23912     -1924.7796      1668.0083    
   2908000   255.24508     -2884.3469     -774.34581      961.26977     -1923.0772      1573.7612    
   2909000   254.65094     -2882.5859     -747.85204      959.10204     -1923.4839      1747.6777    
   2910000   258.07097     -2893.8524     -759.56019      971.58006     -1922.2724      1719.6325    
   2911000   244.48757     -2846.6756     -751.23952      922.02087     -1924.6548      1738.2115    
   2912000   253.08807     -2878.9142     -751.32405      953.39989     -1925.5143      1801.0073    
   2913000   257.18434     -2893.5963     -751.07551      968.3452      -1925.2511      1826.1433    
   2914000   255.97716     -2889.6639     -772.59471      963.94076     -1925.7232      1662.5363    
   2915000   245.61479     -2850.8735     -753.67673      926.13354     -1924.74        1731.9991    
   2916000   251.23839     -2873.0921     -765.97572      946.65131     -1926.4408      1685.793     
   2917000   260.82476     -2908.7548     -791.47421      981.6273      -1927.1275      1509.6401    
   2918000   253.15604     -2879.9964     -764.23219      953.64787     -1926.3485      1669.4634    
   2919000   253.53547     -2881.4619     -790.25179      955.03223     -1926.4297      1531.4051    
   2920000   261.47589     -2907.9077     -768.78148      984.00295     -1923.9048      1661.5456    
   2921000   264.66121     -2919.274      -783.80915      995.62463     -1923.6494      1594.9468    
   2922000   258.02761     -2897.2159     -740.03135      971.42187     -1925.794       1881.073     
   2923000   256.659       -2891.2732     -770.57067      966.42848     -1924.8448      1600.2815    
   2924000   259.40282     -2901.4343     -763.78078      976.43935     -1924.9949      1640.9648    
   2925000   260.17109     -2903.1567     -783.63558      979.24238     -1923.9143      1550.0556    
   2926000   258.1151      -2897.1092     -769.70191      971.74106     -1925.3682      1661.5345    
   2927000   253.00865     -2878.6344     -753.54728      953.11012     -1925.5243      1745.711     
   2928000   256.95205     -2892.1051     -770.62375      967.49767     -1924.6074      1626.5275    
   2929000   258.68346     -2899.1829     -756.53574      973.81473     -1925.3682      1764.7787    
   2930000   259.38294     -2902.2369     -767.45342      976.36681     -1925.8701      1689.561     
   2931000   253.30269     -2881.0728     -776.07076      954.18293     -1926.8899      1648.6387    
   2932000   256.83476     -2895.7571     -773.96123      967.06975     -1928.6874      1675.5086    
   2933000   257.00557     -2896.3155     -783.5805       967.69293     -1928.6226      1599.48      
   2934000   250.26498     -2872.4666     -768.47125      943.09981     -1929.3668      1676.3948    
   2935000   249.7542      -2870.5911     -787.4119       941.23622     -1929.3548      1491.1797    
   2936000   255.34913     -2890.4772     -786.39659      961.64938     -1928.8278      1499.2075    
   2937000   257.77719     -2899.165      -777.93841      970.50822     -1928.6567      1653.7531    
   2938000   258.68664     -2903.1314     -772.22327      973.82634     -1929.3051      1685.7449    
   2939000   255.66027     -2892.4837     -780.83696      962.78461     -1929.699       1576.1628    
   2940000   252.28017     -2881.2638     -772.27079      950.45226     -1930.8115      1620.8572    
   2941000   257.17856     -2898.5124     -775.90521      968.3241      -1930.1883      1676.3201    
   2942000   261.27823     -2914.0065     -769.97374      983.28178     -1930.7248      1685.0912    
   2943000   262.24573     -2916.8267     -796.91912      986.81172     -1930.015       1500.6893    
   2944000   255.58206     -2894.3595     -787.8015       962.49926     -1931.8602      1539.0356    
   2945000   254.21552     -2889.7209     -786.73978      957.5134      -1932.2075      1549.8881    
   2946000   254.73623     -2891.1973     -753.45123      959.41324     -1931.7841      1726.7483    
   2947000   253.55906     -2885.6124     -765.20773      955.1183      -1930.4941      1688.3092    
   2948000   265.16691     -2929.1433     -770.78853      997.4697      -1931.6736      1655.1692    
   2949000   260.36914     -2915.4409     -769.40176      979.96498     -1935.4759      1751.6149    
   2950000   254.36637     -2893.2144     -760.22798      958.06379     -1935.1506      1719.9263    
   2951000   261.03624     -2918.1074     -769.60137      982.3989      -1935.7085      1648.5351    
   2952000   256.39328     -2899.712      -785.75999      965.45901     -1934.253       1513.5092    
   2953000   262.44058     -2923.6941     -779.83251      987.52265     -1936.1715      1662.3365    
   2954000   253.80371     -2892.0693     -774.19461      956.01091     -1936.0584      1599.7091    
   2955000   257.43696     -2903.5502     -755.76637      969.26687     -1934.2834      1759.3684    
   2956000   255.65546     -2898.8195     -768.76889      962.76706     -1936.0524      1695.1642    
   2957000   259.54765     -2911.7413     -778.83432      976.96775     -1934.7735      1621.9518    
   2958000   251.94085     -2885.0313     -782.58215      949.21424     -1935.817       1585.4878    
   2959000   252.70453     -2890.7415     -768.32434      952.00056     -1938.7409      1633.3434    
   2960000   254.08689     -2896.7404     -783.56778      957.04412     -1939.6962      1543.5889    
   2961000   249.71564     -2878.4666     -764.12472      941.09555     -1937.371       1698.6758    
   2962000   253.03919     -2891.7511     -773.72057      953.22158     -1938.5295      1663.9618    
   2963000   267.34662     -2944.5751     -792.91973      1005.4224     -1939.1527      1533.4214    
   2964000   247.25154     -2870.622      -773.21733      932.10526     -1938.5167      1616.9571    
   2965000   254.74456     -2898.3726     -771.61913      959.44362     -1938.929       1666.0293    
   2966000   253.34127     -2892.8068     -767.08651      954.32369     -1938.4831      1676.3636    
   2967000   248.77456     -2876.06       -755.80193      937.662       -1938.398       1725.3881    
   2968000   250.37893     -2881.6223     -756.28059      943.51556     -1938.1067      1697.5263    
   2969000   255.8897      -2902.0544     -776.97469      963.62166     -1938.4327      1652.657     
   2970000   254.39138     -2893.2587     -777.69172      958.15503     -1935.1037      1633.3103    
   2971000   258.5184      -2910.5482     -793.82104      973.2125      -1937.3357      1508.0458    
   2972000   251.51992     -2882.9255     -769.62465      947.67848     -1935.247       1673.3606    
   2973000   254.83433     -2895.7947     -790.37096      959.77114     -1936.0236      1471.0221    
   2974000   251.43632     -2883.1097     -768.9439       947.37347     -1935.7363      1680.8894    
   2975000   261.32075     -2917.8823     -788.40733      983.43693     -1934.4454      1511.8196    
   2976000   256.13358     -2897.6556     -780.77029      964.51147     -1933.1441      1622.5664    
   2977000   254.10206     -2888.8324     -744.21269      957.09946     -1931.7329      1874.6515    
   2978000   260.17136     -2909.5033     -773.68703      979.24338     -1930.2599      1635.6972    
   2979000   257.15905     -2900.0086     -765.99731      968.2529      -1931.7557      1688.5053    
   2980000   254.73039     -2889.6023     -771.74311      959.39193     -1930.2104      1697.8252    
   2981000   257.75782     -2901.7236     -762.37774      970.43753     -1931.286       1744.5114    
   2982000   251.1276      -2879.5944     -762.11203      946.24708     -1933.3474      1754.1964    
   2983000   248.96944     -2871.1516     -760.63779      938.37302     -1932.7786      1728.8882    
   2984000   255.46775     -2892.2395     -777.24489      962.08218     -1930.1573      1588.5426    
   2985000   261.18365     -2912.3118     -767.85907      982.93673     -1929.3751      1742.5785    
   2986000   253.31541     -2884.0845     -764.00137      954.22934     -1929.8551      1680.3237    
   2987000   255.76385     -2892.9126     -789.50668      963.1625      -1929.7501      1538.2964    
   2988000   251.51044     -2876.9261     -745.05251      947.64391     -1929.2822      1794.5427    
   2989000   249.16394     -2869.5382     -750.65077      939.08268     -1930.4556      1776.2026    
   2990000   253.11651     -2883.4727     -777.26737      953.50367     -1929.969       1593.9932    
   2991000   250.34843     -2872.4881     -782.0267       943.4043      -1929.0838      1488.8153    
   2992000   254.99903     -2890.4459     -769.64018      960.37204     -1930.0739      1676.3073    
   2993000   259.64908     -2905.4955     -773.59714      977.33781     -1928.1577      1629.9236    
   2994000   263.77517     -2921.405      -767.51845      992.3919      -1929.0131      1744.3689    
   2995000   254.36767     -2886.97       -770.20956      958.06852     -1928.9015      1627.6173    
   2996000   247.90091     -2863.8326     -748.57827      934.47447     -1929.3581      1781.1818    
   2997000   260.71865     -2910.749      -774.71842      981.24014     -1929.5088      1621.9909    
   2998000   262.5892      -2918.5865     -774.09577      988.0649      -1930.5216      1649.2947    
   2999000   256.48529     -2894.9116     -779.13823      965.79468     -1929.1169      1595.1348    
   3000000   252.29688     -2880.1246     -754.72798      950.51324     -1929.6114      1709.0704    
   3001000   259.20443     -2906.4118     -772.51327      975.71549     -1930.6963      1691.5702    
   3002000   252.88767     -2884.9904     -785.44558      952.66874     -1932.3217      1538.6751    
   3003000   250.07326     -2876.2861     -775.27537      942.40031     -1933.8857      1629.084     
   3004000   263.01595     -2922.8081     -767.33619      989.62189     -1933.1862      1709.2612    
   3005000   256.34295     -2897.0256     -761.14347      965.27535     -1931.7503      1674.5237    
   3006000   255.9635      -2897.09       -777.89424      963.89094     -1933.199       1646.3688    
   3007000   250.70896     -2875.5796     -757.0962       944.71969     -1930.8599      1715.602     
   3008000   254.54525     -2889.9789     -777.18015      958.71643     -1931.2624      1686.7481    
   3009000   254.28327     -2889.3997     -775.53039      957.76058     -1931.6391      1666.4908    
   3010000   257.47574     -2900.5162     -775.64591      969.40837     -1931.1079      1583.1824    
   3011000   257.57149     -2901.6439     -767.08163      969.75772     -1931.8862      1631.4544    
   3012000   256.20116     -2895.8729     -769.99521      964.75805     -1931.1149      1658.6416    
   3013000   253.42073     -2883.3357     -768.94537      954.61361     -1928.722       1691.3678    
   3014000   256.90096     -2896.0198     -787.09785      967.31126     -1928.7085      1510.4967    
   3015000   256.88371     -2894.6699     -793.47262      967.24834     -1927.4216      1508.2536    
   3016000   250.52612     -2870.2049     -762.38859      944.05259     -1926.1523      1704.0317    
   3017000   254.22068     -2885.8047     -778.20677      957.53223     -1928.2725      1614.2531    
   3018000   255.09587     -2889.8062     -783.22826      960.72538     -1929.0809      1565.5117    
   3019000   260.12328     -2909.485      -776.76042      979.06795     -1930.4171      1615.7226    
   3020000   253.05912     -2882.5304     -777.28122      953.29428     -1929.2362      1566.666     
   3021000   256.95145     -2894.8711     -773.40803      967.49547     -1927.3756      1584.4614    
   3022000   256.06057     -2892.6149     -769.62287      964.2451      -1928.3698      1705.9838    
   3023000   254.2387      -2886.0052     -782.91152      957.59797     -1928.4072      1516.0677    
   3024000   251.03104     -2875.8106     -792.42571      945.89479     -1929.9158      1504.4623    
   3025000   259.10523     -2905.0396     -781.15287      975.35356     -1929.686       1615.3088    
   3026000   254.50455     -2888.4955     -769.51286      958.56794     -1929.9275      1635.4339    
   3027000   239.13036     -2833.3999     -763.2986       902.47505     -1930.9249      1604.0395    
   3028000   254.2999      -2888.7404     -773.40756      957.82128     -1930.9191      1666.7947    
   3029000   251.25588     -2877.0612     -767.16786      946.71514     -1930.3461      1681.2453    
   3030000   255.22448     -2890.1685     -760.50813      961.19463     -1928.9739      1759.6118    
   3031000   253.47382     -2883.2277     -775.72307      954.80731     -1928.4204      1586.8071    
   3032000   250.73938     -2874.1124     -768.32883      944.83067     -1929.2817      1596.2573    
   3033000   254.56973     -2889.4065     -760.15191      958.80575     -1930.6008      1676.5427    
   3034000   258.25862     -2902.633      -786.15971      972.26472     -1930.3683      1528.2464    
   3035000   260.56751     -2909.6476     -780.60156      980.6887      -1928.9589      1617.4509    
   3036000   251.31355     -2877.3114     -760.05938      946.92556     -1930.3859      1694.0361    
   3037000   253.80379     -2885.9673     -767.71652      956.01122     -1929.9561      1725.9984    
   3038000   254.10828     -2887.3096     -792.40025      957.12215     -1930.1874      1464.9645    
   3039000   248.50565     -2865.8453     -750.97531      936.6809      -1929.1644      1723.4573    
   3040000   262.86844     -2917.4265     -781.76956      989.08371     -1928.3428      1595.2499    
   3041000   259.84373     -2907.6146     -795.46471      978.048       -1929.5666      1521.4402    
   3042000   254.64714     -2886.2179     -754.92317      959.0882      -1927.1297      1745.3926    
   3043000   256.5086      -2893.2984     -786.96735      965.87975     -1927.4187      1526.7144    
   3044000   261.29268     -2910.5802     -775.18826      983.33452     -1927.2457      1645.3951    
   3045000   256.89001     -2894.6845     -790.10564      967.27134     -1927.4132      1531.2141    
   3046000   250.20964     -2869.3347     -775.48862      942.89793     -1926.4367      1566.8281    
   3047000   255.47579     -2888.3325     -783.28381      962.11154     -1926.221       1527.2106    
   3048000   251.27154     -2874.3397     -758.08884      946.77226     -1927.5674      1711.171     
   3049000   255.9104      -2891.0338     -777.78385      963.6972      -1927.3366      1582.4323    
   3050000   259.02787     -2903.5084     -782.3924       975.07132     -1928.4371      1599.2262    
   3051000   254.81706     -2889.6171     -781.6955       959.70814     -1929.909       1581.0527    
   3052000   257.11931     -2898.3684     -771.12145      968.10791     -1930.2605      1683.9145    
   3053000   251.78155     -2878.8246     -785.74023      948.63305     -1930.1916      1549.8916    
   3054000   254.61367     -2888.6174     -789.61675      958.96607     -1929.6514      1503.6628    
   3055000   261.10161     -2910.4488     -762.39815      982.63739     -1927.8114      1737.8012    
   3056000   257.33007     -2896.5707     -770.56414      968.87687     -1927.6938      1681.561     
   3057000   252.86245     -2879.7242     -770.05699      952.57673     -1927.1475      1654.2301    
   3058000   255.96048     -2891.5832     -761.91834      963.87991     -1927.7033      1754.4801    
   3059000   258.98371     -2903.4545     -773.14903      974.9102      -1928.5443      1635.2194    
   3060000   253.75126     -2882.5698     -762.23731      955.81955     -1926.7502      1706.1566    
   3061000   251.73593     -2874.4885     -767.1069       948.46661     -1926.0219      1645.8232    
   3062000   258.48469     -2897.8322     -757.63096      973.08954     -1924.7426      1782.2435    
   3063000   254.95993     -2883.8579     -770.42925      960.22939     -1923.6285      1650.2912    
   3064000   253.49482     -2880.1237     -769.40618      954.88391     -1925.2398      1678.4306    
   3065000   253.24409     -2881.634      -768.35777      953.96913     -1927.6649      1687.0164    
   3066000   254.92371     -2888.111      -747.09421      960.09726     -1928.0138      1854.1071    
   3067000   258.46009     -2903.4333     -769.11826      972.99978     -1930.4335      1654.9856    
   3068000   257.42093     -2900.2183     -781.76106      969.20839     -1931.0099      1594.4277    
   3069000   260.1522      -2906.8618     -778.75894      979.17344     -1927.6883      1661.1261    
   3070000   253.89537     -2886.6762     -773.11092      956.34532     -1930.3309      1658.6165    
   3071000   252.13265     -2880.2721     -765.42486      949.91405     -1930.358       1665.4137    
   3072000   255.68402     -2891.6496     -775.26936      962.87125     -1928.7783      1670.8889    
   3073000   259.9672      -2908.5363     -778.78193      978.49848     -1930.0378      1646.933     
   3074000   259.62555     -2906.866      -778.64999      977.25197     -1929.614       1602.5524    
   3075000   251.77435     -2877.6523     -769.73165      948.60676     -1929.0455      1636.355     
   3076000   260.05495     -2905.1234     -778.80659      978.81862     -1926.3047      1615.4209    
   3077000   253.89854     -2881.1203     -771.00347      956.35692     -1924.7634      1605.1754    
   3078000   254.78284     -2886.0178     -773.50071      959.58328     -1926.4345      1613.6778    
   3079000   249.60613     -2868.1554     -774.15701      940.69601     -1927.4594      1611.8861    
   3080000   251.07752     -2872.3316     -760.13709      946.06438     -1926.2672      1698.8916    
   3081000   253.54481     -2879.4841     -773.69944      955.0663      -1924.4178      1608.6364    
   3082000   259.59405     -2902.5741     -776.63075      977.13706     -1925.437       1562.2711    
   3083000   259.60574     -2903.2966     -769.44799      977.1797      -1926.1169      1688.0705    
   3084000   245.81687     -2851.345      -758.06547      926.87083     -1924.4741      1674.0691    
   3085000   259.43735     -2901.5988     -748.81944      976.56533     -1925.0335      1776.7962    
   3086000   254.82879     -2881.9695     -769.93933      959.75092     -1922.2185      1638.7471    
   3087000   256.18599     -2886.3087     -775.48698      964.70269     -1921.606       1638.4474    
   3088000   252.42377     -2872.2635     -759.73112      950.97621     -1921.2873      1734.258     
   3089000   256.16261     -2887.4907     -794.82308      964.61738     -1922.8733      1502.4569    
   3090000   257.47517     -2890.6205     -755.40954      969.40629     -1921.2142      1791.4099    
   3091000   257.60393     -2890.6728     -764.22061      969.87605     -1920.7967      1729.9766    
   3092000   254.67558     -2878.8086     -772.99714      959.19196     -1919.6167      1664.7416    
   3093000   257.27637     -2887.9114     -766.14251      968.68095     -1919.2305      1692.6857    
   3094000   259.94598     -2897.3466     -777.13927      978.42106     -1918.9256      1583.3044    
   3095000   258.31371     -2890.6961     -765.73495      972.46571     -1918.2304      1698.4335    
   3096000   251.52796     -2865.2054     -775.35761      947.70781     -1917.4976      1626.3444    
   3097000   256.82138     -2884.1325     -778.77426      967.02094     -1917.1116      1633.1183    
   3098000   245.65518     -2844.1302     -756.84498      926.2809      -1917.8493      1638.4742    
   3099000   252.37788     -2867.7139     -772.88972      950.80876     -1916.9051      1614.1288    
   3100000   252.82291     -2869.8085     -753.38438      952.43246     -1917.3761      1712.5185    
   3101000   260.1432      -2897.8089     -775.63551      979.14061     -1918.6683      1677.6321    
   3102000   255.69097     -2881.422      -766.284        962.8966      -1918.5254      1673.7892    
   3103000   262.49121     -2906.012      -780.30592      987.70736     -1918.3046      1596.4602    
   3104000   258.62789     -2893.2363     -785.25702      973.61198     -1919.6243      1573.6434    
   3105000   253.37159     -2874.8105     -765.06006      954.43431     -1920.3762      1657.4429    
   3106000   251.69293     -2869.2065     -774.14308      948.3097      -1920.8968      1574.4126    
   3107000   264.9433      -2918.155      -778.19316      996.65384     -1921.5012      1603.2938    
   3108000   253.72165     -2877.0668     -764.56086      955.71152     -1921.3552      1661.6857    
   3109000   254.79579     -2880.8403     -766.61188      959.63054     -1921.2098      1643.8589    
   3110000   259.52262     -2899.8684     -786.47681      976.87643     -1922.992       1560.6665    
   3111000   252.59078     -2873.9242     -772.93755      951.58552     -1922.3387      1668.7949    
   3112000   263.83536     -2916.4082     -781.24313      992.61151     -1923.7967      1628.8233    
   3113000   258.28651     -2896.4188     -783.91907      972.36647     -1924.0523      1635.5363    
   3114000   261.39477     -2906.9834     -774.10528      983.707       -1923.2764      1629.3496    
   3115000   262.1329      -2910.9398     -781.48751      986.40005     -1924.5398      1551.8668    
   3116000   257.50307     -2891.2696     -764.78982      969.50808     -1921.7615      1689.7614    
   3117000   259.59984     -2897.46       -781.59655      977.15815     -1920.3019      1648.5715    
   3118000   265.38028     -2916.2933     -771.86191      998.24816     -1918.0452      1668.3972    
   3119000   252.88477     -2872.1814     -772.10792      952.65815     -1919.5232      1606.7023    
   3120000   263.81908     -2912.2281     -800.90919      992.55211     -1919.676       1529.329     
   3121000   256.76495     -2887.6749     -781.31244      966.81505     -1920.8598      1574.6362    
   3122000   253.73429     -2875.8561     -765.92125      955.75762     -1920.0985      1662.1029    
   3123000   251.44467     -2866.2221     -769.12202      947.40392     -1918.8182      1658.9058    
   3124000   255.52952     -2882.7944     -759.8733       962.30757     -1920.4869      1752.4925    
   3125000   259.14363     -2895.4782     -788.88847      975.49367     -1919.9845      1512.5718    
   3126000   258.32001     -2893.4677     -765.06567      972.48868     -1920.979       1736.3415    
   3127000   258.63875     -2894.0405     -782.08477      973.65163     -1920.3888      1541.3455    
   3128000   247.32187     -2853.5487     -768.73727      932.36184     -1921.1869      1667.1625    
   3129000   260.18348     -2902.2296     -768.13985      979.28759     -1922.9421      1734.9356    
   3130000   260.46578     -2903.4876     -782.01256      980.31757     -1923.17        1635.5729    
   3131000   260.22298     -2903.0694     -773.1744       979.43169     -1923.6377      1657.7235    
   3132000   257.45564     -2894.2999     -763.86624      969.33501     -1924.9649      1662.566     
   3133000   261.72471     -2911.6841     -775.07964      984.91077     -1926.7733      1687.1862    
   3134000   263.2189      -2920.2374     -774.53863      990.36235     -1929.875       1666.9154    
   3135000   254.07516     -2886.8565     -774.51367      957.00129     -1929.8553      1626.3379    
   3136000   253.87382     -2887.8732     -768.77307      956.2667      -1931.6065      1629.4051    
   3137000   258.75828     -2906.9123     -770.03011      974.08771     -1932.8246      1666.2625    
   3138000   254.17253     -2891.3458     -780.44957      957.35654     -1933.9893      1573.5861    
   3139000   257.05476     -2899.739      -786.91162      967.8724      -1931.8666      1527.2742    
   3140000   261.07834     -2912.7717     -767.33946      982.55248     -1930.2193      1634.0855    
   3141000   255.21433     -2890.8832     -758.57319      961.15757     -1929.7257      1773.5308    
   3142000   257.12228     -2898.9697     -780.78811      968.11876     -1930.851       1569.587     
   3143000   257.95598     -2903.6941     -765.92075      971.16052     -1932.5335      1722.8852    
   3144000   260.75842     -2915.7277     -797.36326      981.38527     -1934.3424      1495.6939    
   3145000   261.08105     -2917.5842     -781.90128      982.56237     -1935.0218      1612.021     
   3146000   261.88489     -2922.2913     -766.89626      985.4952      -1936.7961      1729.5696    
   3147000   259.05436     -2912.6256     -773.70196      975.16796     -1937.4576      1641.0887    
   3148000   257.74188     -2908.204      -759.3823       970.37937     -1937.8246      1772.1867    
   3149000   256.67525     -2903.6285     -775.93107      966.48775     -1937.1407      1633.901     
   3150000   258.56752     -2913.3612     -786.06343      973.39172     -1939.9695      1593.004     
   3151000   251.33436     -2888.3848     -784.50728      947.00145     -1941.3833      1515.9264    
   3152000   250.98587     -2888.3199     -775.95177      945.73        -1942.5899      1622.0251    
   3153000   253.67275     -2899.3613     -772.05721      955.53311     -1943.8282      1622.9971    
   3154000   253.97782     -2898.6095     -779.82521      956.64616     -1941.9633      1601.2095    
   3155000   255.69162     -2905.5042     -779.31112      962.899       -1942.6052      1603.6333    
   3156000   251.4242      -2887.4959     -760.80466      947.32925     -1940.1667      1705.6481    
   3157000   252.84682     -2892.7607     -778.11703      952.51971     -1940.241       1616.005     
   3158000   247.89005     -2876.0482     -760.53633      934.43486     -1941.6134      1704.2323    
   3159000   257.25776     -2910.5645     -779.69893      968.61305     -1941.9514      1603.7374    
   3160000   256.08605     -2908.5469     -785.24295      964.33807     -1944.2088      1576.6628    
   3161000   256.30439     -2907.7707     -782.63287      965.13469     -1942.636       1643.2404    
   3162000   255.05027     -2902.3348     -772.30004      960.55902     -1941.7758      1673.8893    
   3163000   251.36939     -2888.743      -776.0199       947.12926     -1941.6137      1583.1262    
   3164000   253.08547     -2894.1333     -773.85973      953.39041     -1940.7429      1626.417     
   3165000   258.09538     -2913.5052     -791.30234      971.66911     -1941.8361      1536.9165    
   3166000   256.73337     -2907.4192     -757.29118      966.69982     -1940.7194      1705.8451    
   3167000   257.55823     -2909.3538     -759.40269      969.70932     -1939.6445      1713.959     
   3168000   255.23478     -2902.1744     -779.45494      961.23221     -1940.9422      1542.7809    
   3169000   256.23293     -2906.3324     -771.61829      964.87396     -1941.4584      1633.975     
   3170000   251.93326     -2892.2339     -779.10381      949.18657     -1943.0473      1564.8709    
   3171000   253.52877     -2896.1865     -767.80472      955.00781     -1941.1786      1677.2559    
   3172000   258.74682     -2916.4426     -774.63846      974.04589     -1942.3968      1653.738     
   3173000   253.66359     -2898.5365     -796.58362      955.49969     -1943.0368      1489.5993    
   3174000   257.86095     -2913.9352     -771.11275      970.81379     -1943.1214      1659.6918    
   3175000   247.37115     -2874.948      -776.83816      932.54165     -1942.4063      1569.2486    
   3176000   247.46213     -2872.307      -767.10049      932.87359     -1939.4334      1664.1835    
   3177000   260.02963     -2915.7642     -771.8624       978.72628     -1937.0379      1676.2648    
   3178000   250.73366     -2879.43       -782.82797      944.80982     -1934.6202      1555.6746    
   3179000   263.42045     -2927.1386     -782.17545      991.09771     -1936.0409      1615.1552    
   3180000   248.86839     -2875.4951     -758.48852      938.00433     -1937.4908      1655.9613    
   3181000   259.5131      -2915.1087     -744.44397      976.84168     -1938.267       1855.3597    
   3182000   252.79267     -2890.6581     -778.20611      952.32213     -1938.336       1587.6457    
   3183000   251.3382      -2885.1677     -770.41685      947.01549     -1938.1522      1646.6217    
   3184000   249.5334      -2878.152      -792.39268      940.43064     -1937.7213      1454.9788    
   3185000   257.15067     -2908.3255     -769.6293       968.22234     -1940.1032      1657.7546    
   3186000   258.6579      -2914.6262     -795.21373      973.72148     -1940.9047      1479.2458    
   3187000   252.0683      -2888.5544     -771.0851       949.67927     -1938.8752      1606.1916    
   3188000   264.94463     -2935.2389     -781.00678      996.65868     -1938.5802      1613.263     
   3189000   258.36649     -2912.385      -785.59197      972.65828     -1939.7267      1625.1521    
   3190000   250.89502     -2884.7979     -765.66771      945.39854     -1939.3993      1661.5538    
   3191000   251.74322     -2888.927      -775.48253      948.49318     -1940.4338      1593.9747    
   3192000   254.31661     -2898.64       -767.60984      957.88224     -1940.7577      1614.7876    
   3193000   251.56322     -2889.5335     -758.04484      947.83645     -1941.6971      1728.28      
   3194000   254.42175     -2900.4268     -767.70994      958.26584     -1942.161       1656.7316    
   3195000   249.54153     -2883.1702     -772.10994      940.46032     -1942.7099      1671.9537    
   3196000   250.15087     -2882.3688     -764.89297      942.68349     -1939.6853      1697.2517    
   3197000   256.36987     -2903.7271     -800.3417       965.37358     -1938.3536      1494.9799    
   3198000   257.70234     -2909.5877     -767.23994      970.23511     -1939.3526      1725.339     
   3199000   253.632       -2894.2705     -782.02076      955.38443     -1938.8861      1594.7498    
   3200000   251.74486     -2887.2889     -768.1481       948.49918     -1938.7897      1611.1399    
   3201000   253.51731     -2896.0027     -774.04537      954.96598     -1941.0367      1649.6029    
   3202000   253.35196     -2895.7228     -778.46315      954.3627      -1941.3601      1617.7352    
   3203000   250.43462     -2885.5293     -754.66089      943.71874     -1941.8105      1718.5373    
   3204000   249.86492     -2882.5449     -760.95925      941.6402      -1940.9047      1722.1194    
   3205000   256.76942     -2907.308      -759.2388       966.83135     -1940.4766      1819.6525    
   3206000   258.41551     -2912.1042     -771.11162      972.83713     -1939.2671      1717.4927    
   3207000   252.21733     -2890.3613     -785.96265      950.223       -1940.1383      1573.285     
   3208000   253.22587     -2893.8917     -780.68884      953.90268     -1939.9891      1563.1126    
   3209000   262.83938     -2928.5071     -789.78015      988.97768     -1939.5294      1616.6525    
   3210000   253.02693     -2894.6165     -782.64509      953.17684     -1941.4397      1581.0489    
   3211000   251.30679     -2887.6024     -783.43627      946.90086     -1940.7016      1515.5275    
   3212000   260.47834     -2922.3615     -786.97647      980.36339     -1941.9981      1583.9437    
   3213000   252.39627     -2893.9907     -754.10712      950.87585     -1943.1149      1816.5053    
   3214000   250.93412     -2890.0278     -786.08076      945.54118     -1944.4866      1559.0387    
   3215000   255.1344      -2904.3962     -776.3239       960.86597     -1943.5302      1630.786     
   3216000   255.43508     -2905.1505     -768.6654       961.963       -1943.1874      1696.7693    
   3217000   259.73605     -2920.6053     -797.38141      977.65514     -1942.9502      1453.3928    
   3218000   249.70618     -2885.3602     -778.64502      941.06102     -1944.2992      1596.2049    
   3219000   254.34738     -2902.306      -781.95751      957.99449     -1944.3115      1555.4194    
   3220000   258.1004      -2915.7703     -777.0013       971.68745     -1944.0829      1617.0947    
   3221000   250.23883     -2887.4463     -774.58769      943.00443     -1944.4419      1619.2379    
   3222000   255.05942     -2904.7678     -780.3672       960.59238     -1944.1755      1609.5818    
   3223000   251.81369     -2892.6672     -785.36821      948.75031     -1943.9169      1542.8922    
   3224000   256.46408     -2908.4408     -770.04252      965.71729     -1942.7235      1683.7098    
   3225000   256.69745     -2907.7883     -785.75818      966.56878     -1941.2196      1574.737     
   3226000   248.28893     -2877.6032     -762.2847       935.89017     -1941.713       1642.9397    
   3227000   255.8195      -2903.5569     -768.35891      963.36554     -1940.1914      1679.2806    
   3228000   253.10154     -2894.157      -760.34245      953.44902     -1940.708       1689.6781    
   3229000   247.49056     -2874.5725     -769.54959      932.9773      -1941.5952      1652.2595    
   3230000   248.86821     -2878.9644     -760.43976      938.00367     -1940.9607      1721.669     
   3231000   255.61285     -2901.2478     -778.97392      962.61158     -1938.6363      1645.4522    
   3232000   254.57131     -2897.8072     -774.99845      958.81151     -1938.9957      1565.3153    
   3233000   244.96526     -2861.5849     -771.44991      923.76372     -1937.8211      1624.8537    
   3234000   260.58812     -2916.888      -770.50357      980.76392     -1936.124       1688.3503    
   3235000   262.66123     -2923.291      -786.31433      988.32769     -1934.9634      1640.7124    
   3236000   252.41384     -2885.4189     -779.3617       950.93996     -1934.479       1565.657     
   3237000   257.38015     -2904.615      -799.63585      969.05958     -1935.5554      1512.5173    
   3238000   250.92764     -2880.8762     -782.28024      945.51755     -1935.3586      1563.8386    
   3239000   252.27237     -2885.604      -772.99541      950.42382     -1935.1802      1600.7518    
   3240000   250.70965     -2879.3435     -777.68736      944.7222      -1934.6213      1592.8655    
   3241000   261.29542     -2917.7063     -770.4958       983.34451     -1934.3618      1617.0672    
   3242000   259.37179     -2910.275      -777.1411       976.32611     -1933.9489      1631.1949    
   3243000   251.83124     -2883.0764     -786.4238       948.81435     -1934.262       1535.8718    
   3244000   258.84893     -2908.2115     -756.98963      974.41847     -1933.793       1799.9931    
   3245000   255.24659     -2896.9401     -782.97706      961.27528     -1935.6648      1496.6881    
   3246000   260.23872     -2914.8804     -782.01394      979.48914     -1935.3913      1622.6942    
   3247000   254.14566     -2892.3938     -785.40744      957.25852     -1935.1352      1542.3561    
   3248000   255.72094     -2897.9783     -785.66989      963.00594     -1934.9723      1537.0151    
   3249000   258.54739     -2907.8237     -775.51669      973.31829     -1934.5054      1675.4437    
   3250000   251.75536     -2885.4743     -768.20529      948.5375      -1936.9368      1646.3305    
   3251000   251.0081      -2882.9935     -780.2043       945.81112     -1937.1823      1572.1841    
   3252000   251.16528     -2881.3231     -765.18407      946.38457     -1934.9386      1650.4511    
   3253000   250.32463     -2877.6573     -764.30359      943.31746     -1934.3398      1686.7894    
   3254000   259.14757     -2909.0021     -789.09394      975.50805     -1933.4941      1563.1544    
   3255000   253.16291     -2886.9656     -759.00095      953.67296     -1933.2926      1724.4844    
   3256000   260.17831     -2909.4618     -777.5993       979.2687      -1930.1931      1658.1597    
   3257000   258.59585     -2902.242      -757.64446      973.4951      -1928.7469      1756.2525    
   3258000   250.42601     -2874.3629     -756.37494      943.68732     -1930.6756      1728.769     
   3259000   259.50111     -2907.3012     -783.47976      976.79795     -1930.5033      1579.1617    
   3260000   261.16213     -2915.2302     -765.52012      982.85818     -1932.3721      1761.3356    
   3261000   256.63204     -2898.9887     -759.5292       966.33012     -1932.6586      1720.4325    
   3262000   254.31725     -2890.6873     -771.59313      957.88459     -1932.8027      1688.8562    
   3263000   258.5425      -2905.0742     -772.59111      973.30045     -1931.7738      1651.8989    
   3264000   251.41966     -2878.497      -771.94271      947.31268     -1931.1843      1645.0376    
   3265000   247.63332     -2862.0532     -759.39313      933.49816     -1928.5551      1639.9714    
   3266000   254.37276     -2885.3474     -769.23031      958.0871      -1927.2603      1636.8465    
   3267000   256.07317     -2890.9703     -779.60779      964.29106     -1926.6792      1544.7514    
   3268000   255.62238     -2888.9363     -784.39915      962.64635     -1926.29        1538.3167    
   3269000   255.89707     -2886.6152     -771.11956      963.64858     -1922.9666      1683.6395    
   3270000   257.18976     -2890.9022     -785.87104      968.36495     -1922.5373      1562.7121    
   3271000   255.64722     -2884.293      -780.40365      962.73699     -1921.556       1567.7742    
   3272000   254.82096     -2880.7639     -768.89706      959.72236     -1921.0416      1687.906     
   3273000   257.6798      -2890.2574     -772.0906       970.15287     -1920.1046      1673.9977    
   3274000   267.65438     -2926.7808     -803.9661       1006.5452     -1920.2355      1451.5386    
   3275000   260.14589     -2899.6646     -758.91375      979.15045     -1920.5141      1730.2984    
   3276000   262.78849     -2910.2706     -768.19656      988.792       -1921.4786      1695.502     
   3277000   254.36746     -2881.6457     -757.43992      958.06776     -1923.5779      1743.0285    
   3278000   256.00766     -2889.3319     -778.50311      964.05206     -1925.2799      1554.9066    
   3279000   260.78658     -2906.8468     -786.08289      981.488       -1925.3588      1627.7802    
   3280000   251.5675      -2874.6903     -780.38748      947.85207     -1926.8382      1597.7736    
   3281000   256.99721     -2897.2789     -769.36772      967.66243     -1929.6165      1660.1774    
   3282000   258.07223     -2901.5118     -783.30425      971.58468     -1929.9272      1608.2021    
   3283000   256.15445     -2893.838      -784.55584      964.58762     -1929.2504      1555.1656    
   3284000   262.19387     -2918.2771     -775.07994      986.62253     -1931.6546      1656.8603    
   3285000   260.72917     -2914.2308     -768.05381      981.27854     -1932.9523      1711.7656    
   3286000   260.20541     -2912.8878     -782.27783      979.36761     -1933.5201      1583.2356    
   3287000   251.1563      -2881.5774     -752.90732      946.3518      -1935.2256      1787.1618    
   3288000   262.31482     -2922.252      -788.89509      987.06381     -1935.1882      1582.5254    
   3289000   257.81794     -2904.6812     -758.72554      970.65688     -1934.0243      1864.4803    
   3290000   250.22825     -2876.089      -781.29944      942.96582     -1933.1232      1557.9712    
   3291000   256.00279     -2895.8385     -791.47636      964.0343      -1931.8042      1569.3858    
   3292000   249.63596     -2872.3945     -758.41105      940.80484     -1931.5896      1747.6495    
   3293000   260.99412     -2911.5554     -782.13387      982.24522     -1929.3102      1632.204     
   3294000   255.152       -2889.1508     -778.16243      960.93016     -1928.2206      1578.6084    
   3295000   257.08341     -2895.9977     -785.57132      967.97696     -1928.0208      1580.0796    
   3296000   259.20051     -2905.865      -783.0437       975.7012      -1930.1638      1607.6444    
   3297000   251.52155     -2878.3809     -775.31981      947.68443     -1930.6964      1663.1058    
   3298000   257.72853     -2900.3534     -778.10582      970.33068     -1930.0227      1641.5579    
   3299000   261.05446     -2911.9574     -758.08054      982.46537     -1929.4921      1733.5069    
   3300000   255.95898     -2891.9677     -773.87628      963.87445     -1928.0932      1638.6288    
   3301000   254.82055     -2888.7739     -780.23686      959.72089     -1929.053       1610.374     
   3302000   252.37654     -2878.4388     -775.28172      950.80387     -1927.6349      1590.4224    
   3303000   258.68953     -2903.339      -773.67199      973.83689     -1929.5021      1594.0057    
   3304000   252.63997     -2882.5609     -769.65997      951.765       -1930.7959      1641.0126    
   3305000   256.84447     -2897.1513     -781.96203      967.10515     -1930.0461      1564.8051    
   3306000   256.32617     -2895.5957     -763.62944      965.21413     -1930.3816      1701.5243    
   3307000   259.89795     -2908.1197     -767.63611      978.24582     -1929.8739      1742.7357    
   3308000   248.84629     -2868.8822     -776.74678      937.92372     -1930.9585      1588.7236    
   3309000   256.56379     -2896.3769     -772.36864      966.0811      -1930.2958      1644.3192    
   3310000   260.13366     -2909.1609     -779.51653      979.10583     -1930.0551      1584.4331    
   3311000   257.31647     -2896.6715     -767.21306      968.82725     -1927.8442      1675.6333    
   3312000   247.49651     -2860.859      -742.82199      932.99901     -1927.86        1832.7465    
   3313000   256.2409      -2893.8968     -779.6962       964.90302     -1928.9938      1631.7866    
   3314000   261.42877     -2914.3724     -764.21773      983.83103     -1930.5413      1726.1356    
   3315000   260.80654     -2910.4074     -770.72997      981.56081     -1928.8466      1708.8195    
   3316000   257.83586     -2899.2557     -777.85438      970.72225     -1928.5334      1649.1783    
   3317000   253.38311     -2884.3849     -780.30589      954.47636     -1929.9085      1650.0727    
   3318000   261.9687      -2916.26       -792.55151      985.80097     -1930.4591      1573.5422    
   3319000   253.14996     -2884.7903     -788.53381      953.62571     -1931.1646      1493.7351    
   3320000   264.89737     -2928.4201     -784.62975      996.48626     -1931.9339      1617.8385    
   3321000   256.29274     -2897.1363     -770.70227      965.09219     -1932.0441      1699.5584    
   3322000   250.19424     -2872.8389     -760.20023      942.84172     -1929.9972      1716.7583    
   3323000   257.99613     -2900.7981     -783.4012       971.30703     -1929.491       1626.0328    
   3324000   255.97531     -2894.1636     -780.77768      963.93402     -1930.2296      1634.2869    
   3325000   262.10927     -2914.9596     -772.69472      986.31385     -1928.6457      1675.3587    
   3326000   261.83217     -2911.6345     -776.45937      985.30285     -1926.3316      1674.7534    
   3327000   253.25006     -2878.4402     -756.15884      953.99091     -1924.4492      1746.9704    
   3328000   261.91482     -2909.5448     -780.95176      985.60441     -1923.9404      1620.296     
   3329000   251.45471     -2871.24       -772.04301      947.44056     -1923.7995      1627.0985    
   3330000   258.70908     -2897.4337     -774.36916      973.90823     -1923.5255      1633.933     
   3331000   255.48994     -2884.7801     -762.77105      962.16316     -1922.617       1649.9089    
   3332000   254.28041     -2878.9244     -780.54744      957.75016     -1921.1743      1546.1568    
   3333000   256.68708     -2888.3649     -785.89666      966.53093     -1921.834       1558.2305    
   3334000   262.49503     -2911.571      -788.06681      987.7213      -1923.8497      1556.7268    
   3335000   256.37178     -2888.8539     -770.04222      965.38056     -1923.4734      1645.4381    
   3336000   265.29811     -2920.0746     -786.47983      997.94837     -1922.1262      1618.8314    
   3337000   257.60967     -2891.6449     -776.85104      969.89702     -1921.7479      1563.9158    
   3338000   259.69195     -2901.1194     -778.08343      977.49424     -1923.6252      1600.5047    
   3339000   253.86572     -2879.6671     -758.52234      956.23715     -1923.4299      1740.0559    
   3340000   254.5382      -2882.3995     -767.38108      958.69073     -1923.7088      1676.059     
   3341000   251.6968      -2873.309      -758.69332      948.32383     -1924.9851      1704.6441    
   3342000   254.99157     -2886.379      -783.26861      960.34483     -1926.0342      1558.4523    
   3343000   255.08112     -2887.2463     -769.19406      960.67157     -1926.5747      1695.9443    
   3344000   254.32918     -2883.9732     -776.75895      957.92808     -1926.0451      1612.7933    
   3345000   257.3223      -2893.9062     -769.88223      968.84852     -1925.0577      1629.5431    
   3346000   257.34077     -2895.6417     -779.63283      968.91591     -1926.7258      1595.3503    
   3347000   264.66375     -2924.9515     -789.99919      995.63389     -1929.3176      1565.2858    
   3348000   253.3824      -2884.0105     -761.5585       954.47378     -1929.5367      1699.8313    
   3349000   260.38342     -2908.3754     -776.69935      980.01706     -1928.3583      1600.3247    
   3350000   245.81337     -2854.5501     -778.42023      926.85807     -1927.692       1523.6065    
   3351000   252.7675      -2879.6546     -760.0128       952.23028     -1927.4243      1701.1724    
   3352000   253.32924     -2883.1026     -771.52104      954.27982     -1928.8228      1583.9047    
   3353000   253.56353     -2883.9457     -781.1709       955.13461     -1928.8111      1601.1557    
   3354000   253.17395     -2882.2345     -764.98757      953.71322     -1928.5213      1688.7432    
   3355000   259.28136     -2904.1197     -776.25941      975.99619     -1928.1235      1627.4323    
   3356000   251.9174      -2876.1697     -785.28457      949.12871     -1927.041       1522.5556    
   3357000   260.91472     -2907.7615     -772.41981      981.95552     -1925.806       1677.2451    
   3358000   251.68534     -2873.7683     -755.96802      948.28201     -1925.4863      1675.918     
   3359000   265.85785     -2924.4308     -781.87459      999.99058     -1924.4402      1621.9339    
   3360000   250.9784      -2869.299      -762.50312      945.70276     -1923.5962      1739.8535    
   3361000   251.24463     -2869.1356     -764.00575      946.67408     -1922.4615      1659.43      
   3362000   259.36568     -2898.3294     -786.56273      976.30385     -1922.0255      1512.8579    
   3363000   247.656       -2856.9808     -781.53287      933.58093     -1923.3999      1510.8529    
   3364000   251.32691     -2869.8295     -770.97112      946.9743      -1922.8552      1650.9082    
   3365000   254.90065     -2880.8511     -776.70903      960.01311     -1920.838       1575.5758    
   3366000   250.65735     -2864.6449     -774.49571      944.5314      -1920.1135      1615.5179    
   3367000   261.53438     -2904.5585     -769.80787      984.21637     -1920.3421      1668.5403    
   3368000   257.93204     -2891.0631     -776.17353      971.07316     -1919.9899      1612.3967    
   3369000   253.42238     -2873.8893     -783.56057      954.61965     -1919.2697      1545.8123    
   3370000   260.43742     -2897.7512     -776.72871      980.21407     -1917.5371      1655.8374    
   3371000   260.77325     -2898.7942     -783.55431      981.43935     -1917.3549      1645.4619    
   3372000   258.31386     -2892.0265     -776.89659      972.46625     -1919.5603      1639.9475    
   3373000   261.30066     -2902.9388     -773.41755      983.36361     -1919.5752      1626.8534    
   3374000   260.51166     -2900.5298     -772.33083      980.48494     -1920.0449      1645.5302    
   3375000   256.2006      -2881.917      -775.68768      964.75601     -1917.161       1596.4873    
   3376000   263.1979      -2910.1588     -783.13742      990.28571     -1919.8731      1665.0764    
   3377000   263.88937     -2911.4643     -774.64321      992.80856     -1918.6558      1667.2701    
   3378000   259.58037     -2894.4496     -768.82704      977.08714     -1917.3624      1627.5436    
   3379000   259.8331      -2896.0951     -781.57043      978.00923     -1918.0858      1597.7712    
   3380000   252.12761     -2869.1679     -770.94351      949.89566     -1919.2723      1672.7914    
   3381000   258.7762      -2893.8232     -758.68264      974.1531      -1919.6701      1776.2217    
   3382000   253.95002     -2878.2682     -759.80813      956.54473     -1921.7235      1688.4146    
   3383000   260.32968     -2900.8444     -761.5183       979.82098     -1921.0235      1740.5603    
   3384000   269.17644     -2930.2917     -786.73345      1012.0985     -1918.1932      1582.153     
   3385000   255.70155     -2881.209      -751.57057      962.9352      -1918.2738      1772.0352    
   3386000   258.04211     -2892.2199     -779.95636      971.47475     -1920.7452      1620.0699    
   3387000   252.37025     -2871.2128     -771.69428      950.78091     -1920.4319      1628.4803    
   3388000   259.87501     -2898.8816     -767.87513      978.16212     -1920.7195      1660.3501    
   3389000   256.03897     -2885.6569     -759.37567      964.16629     -1921.4906      1776.9107    
   3390000   255.72816     -2887.2792     -778.82544      963.03229     -1924.2469      1615.1794    
   3391000   257.77862     -2894.9016     -780.47949      970.51342     -1924.3882      1559.9927    
   3392000   261.09663     -2903.9079     -792.79203      982.61923     -1921.2887      1480.0049    
   3393000   258.88902     -2896.4829     -776.37188      974.56474     -1921.9182      1613.9567    
   3394000   257.6055      -2892.1803     -753.12203      969.88179     -1922.2985      1741.2251    
   3395000   254.14022     -2880.4084     -773.16092      957.23868     -1923.1697      1615.1048    
   3396000   255.63042     -2888.3151     -766.6502       962.67568     -1925.6395      1655.0241    
   3397000   257.68424     -2894.9952     -784.31762      970.16908     -1924.8261      1617.5096    
   3398000   251.69776     -2872.9098     -767.15384      948.32733     -1924.5825      1702.7216    
   3399000   254.28455     -2883.3512     -776.21406      957.76526     -1925.586       1639.6467    
   3400000   260.56976     -2906.922      -788.05192      980.69692     -1926.225       1551.7371    
   3401000   254.44643     -2885.4908     -776.16415      958.3559      -1927.1349      1674.8978    
   3402000   256.6424      -2893.8953     -787.68763      966.3679      -1927.5274      1537.1235    
   3403000   260.63434     -2907.0745     -783.48544      980.93257     -1926.1419      1572.0713    
   3404000   252.42702     -2879.1476     -773.43618      950.98804     -1928.1596      1588.9741    
   3405000   258.7061      -2903.2382     -770.26357      973.89734     -1929.3409      1705.7834    
   3406000   257.54241     -2896.6777     -788.69741      969.65162     -1927.0261      1537.9015    
   3407000   251.63511     -2874.8694     -760.69241      948.09875     -1926.7707      1711.6209    
   3408000   261.13648     -2909.638      -779.11157      982.76463     -1926.8734      1541.1392    
   3409000   260.59233     -2910.4714     -804.43356      980.77926     -1929.6922      1447.268     
   3410000   248.0353      -2866.839      -778.31025      934.9648      -1931.8742      1560.4884    
   3411000   246.25648     -2858.9659     -764.27597      928.47476     -1930.4912      1695.5789    
   3412000   252.33849     -2882.1722     -773.12089      950.66506     -1931.5071      1609.9185    
   3413000   251.76317     -2881.1829     -787.29634      948.56597     -1932.6169      1504.1995    
   3414000   251.0706      -2877.2675     -768.27884      946.03915     -1931.2284      1650.0364    
   3415000   253.5995      -2887.0689     -775.10654      955.26587     -1931.803       1597.374     
   3416000   256.06668     -2894.2176     -764.11626      964.26739     -1929.9502      1673.6385    
   3417000   247.25962     -2863.0986     -757.67713      932.13471     -1930.9639      1685.212     
   3418000   255.52802     -2891.6843     -749.79051      962.30208     -1929.3823      1709.3206    
   3419000   257.5662      -2900.603      -776.34333      969.73841     -1930.8645      1641.5689    
   3420000   252.29127     -2880.8042     -763.31903      950.49276     -1930.3115      1667.8953    
   3421000   264.57456     -2927.3923     -797.10961      995.30849     -1932.0838      1509.7308    
   3422000   260.9961      -2914.6614     -772.69104      982.25244     -1932.4089      1674.1579    
   3423000   259.62336     -2910.8873     -751.78225      977.24398     -1933.6433      1820.1214    
   3424000   259.32916     -2910.1341     -790.12916      976.17057     -1933.9635      1555.785     
   3425000   254.80255     -2891.6445     -794.33246      959.65518     -1931.9894      1469.3499    
   3426000   246.33056     -2858.8299     -768.35787      928.74504     -1930.0848      1583.7784    
   3427000   250.03326     -2870.8103     -765.1782       942.25438     -1928.5559      1638.7928    
   3428000   245.72092     -2853.6313     -766.80003      926.52075     -1927.1105      1631.8354    
   3429000   261.58202     -2911.2067     -766.05957      984.39017     -1926.8165      1698.8592    
   3430000   262.43063     -2914.4182     -765.75396      987.48632     -1926.9318      1739.3594    
   3431000   255.38651     -2888.0703     -771.74064      961.78578     -1926.2845      1655.2207    
   3432000   256.79557     -2892.6002     -761.22322      966.92677     -1925.6734      1713.262     
   3433000   261.93942     -2909.4486     -765.54551      985.69413     -1923.7545      1791.2691    
   3434000   256.14876     -2890.0396     -770.37744      964.56685     -1925.4727      1673.4405    
   3435000   256.50432     -2892.3953     -790.01263      965.86414     -1926.5311      1491.5334    
   3436000   260.06066     -2905.3687     -763.63676      978.83948     -1926.5292      1756.2142    
   3437000   254.31226     -2884.7712     -773.04505      957.86638     -1926.9048      1591.6928    
   3438000   252.96065     -2878.1794     -765.23489      952.93501     -1925.2443      1678.635     
   3439000   264.69906     -2919.4868     -778.88422      995.76272     -1923.724       1647.9014    
   3440000   258.91854     -2898.227      -776.93408      974.67243     -1923.5546      1618.3577    
   3441000   261.60659     -2909.2315     -771.23636      984.47981     -1924.7517      1670.2155    
   3442000   252.80165     -2877.7744     -764.26882      952.3549      -1925.4195      1686.389     
   3443000   251.38954     -2873.4848     -771.00485      947.2028      -1926.282       1601.4963    
   3444000   260.368       -2906.1325     -792.39388      979.96082     -1926.1717      1501.3398    
   3445000   263.60127     -2919.4521     -769.11422      991.75745     -1927.6946      1701.4463    
   3446000   250.95847     -2870.6083     -773.71229      945.63004     -1924.9783      1573.9799    
   3447000   254.83115     -2885.2801     -766.14072      959.75955     -1925.5205      1649.9383    
   3448000   255.00511     -2884.108      -757.16588      960.39425     -1923.7137      1765.4332    
   3449000   257.17951     -2890.7232     -750.32247      968.32756     -1922.3956      1774.2981    
   3450000   254.69837     -2880.9993     -759.03781      959.27509     -1921.7242      1759.7477    
   3451000   252.2239      -2870.2004     -768.76516      950.24698     -1919.9534      1604.2063    
   3452000   250.87904     -2865.0837     -771.83605      945.34021     -1919.7435      1572.9319    
   3453000   252.33391     -2869.3113     -764.62805      950.64834     -1918.6629      1653.9704    
   3454000   254.30251     -2876.3781     -766.23074      957.83081     -1918.5473      1718.1495    
   3455000   254.68257     -2880.7726     -762.14591      959.21745     -1921.5551      1685.148     
   3456000   261.93806     -2907.3588     -775.59715      985.68918     -1921.6696      1710.7792    
   3457000   256.88788     -2888.2454     -786.55569      967.26356     -1920.9818      1533.8699    
   3458000   256.85965     -2888.9162     -757.8288       967.16056     -1921.7556      1743.309     
   3459000   256.16585     -2888.0879     -761.56257      964.62923     -1923.4586      1776.1928    
   3460000   254.86227     -2884.7119     -762.36751      959.87309     -1924.8389      1745.823     
   3461000   253.88595     -2881.854      -770.62037      956.31097     -1925.5431      1630.0089    
   3462000   258.04568     -2896.5196     -767.78488      971.4878      -1925.0318      1691.2093    
   3463000   255.68293     -2888.5698     -769.87575      962.86729     -1925.7025      1645.5089    
   3464000   254.08519     -2883.3095     -777.39285      957.0379      -1926.2716      1592.0433    
   3465000   258.65781     -2903.101      -767.38428      973.72116     -1929.3799      1673.6944    
   3466000   260.75736     -2911.0457     -802.32712      981.38138     -1929.6643      1481.7423    
   3467000   251.58395     -2879.0401     -754.72417      947.9121      -1931.128       1722.2691    
   3468000   248.68767     -2865.7983     -758.24858      937.345       -1928.4533      1728.3995    
   3469000   252.37255     -2879.2541     -769.04661      950.78933     -1928.4648      1643.0247    
   3470000   258.82426     -2902.4114     -777.46526      974.32844     -1928.083       1666.8423    
   3471000   248.99542     -2865.4115     -765.8151       938.46781     -1926.9437      1691.7574    
   3472000   250.13946     -2872.6038     -776.35596      942.64186     -1929.9619      1636.9873    
   3473000   254.73941     -2892.4155     -774.81308      959.42483     -1932.9906      1571.5966    
   3474000   247.42704     -2865.9249     -777.69492      932.74558     -1933.1793      1526.1068    
   3475000   249.00271     -2871.8752     -766.48354      938.49443     -1933.3808      1681.2679    
   3476000   248.07114     -2867.5711     -761.92286      935.09556     -1932.4756      1628.1325    
   3477000   258.68311     -2906.0252     -764.77001      973.81347     -1932.2117      1708.9638    
   3478000   256.5171      -2898.2868     -782.15675      965.91075     -1932.3761      1579.9718    
   3479000   259.53348     -2907.1951     -786.39624      976.91603     -1930.2791      1519.1093    
   3480000   265.84805     -2931.8337     -798.52374      999.95483     -1931.8789      1501.9603    
   3481000   258.42683     -2905.4518     -756.5237       972.87842     -1932.5734      1772.223     
   3482000   258.46413     -2903.9041     -770.60384      973.01451     -1930.8896      1656.9492    
   3483000   258.16583     -2902.8627     -773.51822      971.92616     -1930.9366      1686.3867    
   3484000   255.90252     -2892.964      -757.90453      963.66846     -1929.2956      1704.3139    
   3485000   251.55896     -2880.3236     -781.04783      947.82093     -1932.5027      1594.648     
   3486000   262.18624     -2920.6086     -779.61665      986.59467     -1934.0139      1696.2788    
   3487000   259.22013     -2909.877      -772.30238      975.77279     -1934.1043      1721.0814    
   3488000   258.62608     -2907.3675     -774.64318      973.6054      -1933.7621      1658.1851    
   3489000   250.89643     -2876.2507     -776.27069      945.40366     -1930.847       1630.3844    
   3490000   264.40528     -2924.2738     -797.19073      994.69086     -1929.583       1550.4502    
   3491000   254.30969     -2888.2952     -757.39343      957.857       -1930.4382      1774.7949    
   3492000   252.68227     -2883.0116     -782.38154      951.91934     -1931.0922      1563.1534    
   3493000   262.09419     -2920.113      -773.00882      986.25884     -1933.8542      1671.1494    
   3494000   247.45124     -2866.805      -792.03153      932.83385     -1933.9711      1523.4219    
   3495000   256.19149     -2898.1147     -777.4681       964.72275     -1933.392       1621.8107    
   3496000   249.19743     -2870.7616     -769.60831      939.20485     -1931.5567      1636.315     
   3497000   254.53777     -2889.9312     -784.46488      958.68914     -1931.2421      1552.4051    
   3498000   247.10932     -2864.6456     -744.21284      931.58635     -1933.0593      1848.5337    
   3499000   258.63214     -2903.7599     -790.40746      973.62749     -1930.1324      1540.7346    
   3500000   258.88055     -2907.4367     -784.54839      974.53381     -1932.9028      1582.5661    
   3501000   262.4978      -2922.131      -795.95619      987.73142     -1934.3996      1486.1138    
   3502000   256.11435     -2898.3999     -779.02462      964.44133     -1933.9586      1597.4535    
   3503000   259.25721     -2910.6672     -784.4022       975.90808     -1934.7592      1568.397     
   3504000   255.42396     -2897.7417     -782.5554       961.9224      -1935.8193      1557.6161    
   3505000   250.99979     -2881.448      -777.56169      945.78078     -1935.6672      1528.7117    
   3506000   259.23784     -2910.2922     -792.03883      975.83741     -1934.4547      1502.0191    
   3507000   261.56216     -2918.9911     -770.90426      984.31769     -1934.6734      1639.7027    
   3508000   253.76758     -2892.0537     -763.89845      955.8791      -1936.1746      1668.7551    
   3509000   256.67669     -2903.3626     -789.40717      966.49301     -1936.8696      1578.6307    
   3510000   253.65151     -2890.7707     -778.53891      955.45561     -1935.3151      1642.5872    
   3511000   258.61044     -2909.123      -766.09269      973.54831     -1935.5747      1687.2461    
   3512000   254.22438     -2894.0466     -782.08221      957.54575     -1936.5008      1654.1       
   3513000   250.80003     -2881.1185     -789.33575      945.05197     -1936.0665      1573.8294    
   3514000   257.94056     -2906.5012     -781.21365      971.10425     -1935.397       1566.0202    
   3515000   245.00843     -2861.0412     -763.21292      923.92123     -1937.12        1650.8246    
   3516000   248.75725     -2876.7042     -764.43933      937.59883     -1939.1053      1622.4242    
   3517000   251.79638     -2887.0586     -775.84221      948.68716     -1938.3714      1666.2816    
   3518000   253.07065     -2892.085      -779.75817      953.33632     -1938.7487      1602.5937    
   3519000   251.76452     -2888.2564     -762.24999      948.57092     -1939.6855      1698.9332    
   3520000   258.81424     -2913.5009     -788.37585      974.2919      -1939.209       1534.6132    
   3521000   254.44047     -2896.8562     -784.13333      958.33414     -1938.522       1646.6453    
   3522000   259.41312     -2915.3863     -774.2122       976.47692     -1938.9094      1647.0109    
   3523000   259.02417     -2916.5004     -785.53287      975.05783     -1941.4426      1543.6578    
   3524000   245.79627     -2869.2099     -762.56782      926.79569     -1942.4142      1694.5724    
   3525000   250.74467     -2886.6093     -775.84352      944.84997     -1941.7593      1635.9683    
   3526000   254.57937     -2898.6709     -788.00205      958.84093     -1939.83        1571.9457    
   3527000   252.54522     -2891.7053     -769.20898      951.41929     -1940.286       1708.4133    
   3528000   257.15356     -2908.7866     -777.26188      968.23287     -1940.5537      1691.4068    
   3529000   264.08557     -2934.3437     -786.70604      993.5244      -1940.8193      1633.1902    
   3530000   261.00783     -2921.9463     -777.9541       982.29524     -1939.6511      1595.663     
   3531000   263.87347     -2931.0156     -790.17884      992.75055     -1938.265       1553.1751    
   3532000   255.4785      -2900.2129     -789.62183      962.12141     -1938.0914      1513.1118    
   3533000   255.28995     -2901.0618     -777.60388      961.43349     -1939.6283      1654.3202    
   3534000   257.46882     -2906.2235     -790.03519      969.38312     -1936.8404      1584.5713    
   3535000   254.87289     -2894.8572     -760.55714      959.91185     -1934.9453      1675.5024    
   3536000   251.03588     -2881.5311     -769.64736      945.91244     -1935.6187      1692.0721    
   3537000   248.30918     -2872.2404     -769.70276      935.96405     -1936.2764      1629.6315    
   3538000   255.49224     -2897.0393     -770.72124      962.17153     -1934.8678      1720.7839    
   3539000   259.56131     -2911.2554     -787.55304      977.01757     -1934.2378      1540.8108    
   3540000   257.38322     -2901.9506     -797.21354      969.0708      -1932.8798      1486.2158    
   3541000   251.00239     -2879.0349     -760.76294      945.79026     -1933.2447      1640.6893    
   3542000   255.66061     -2897.2711     -769.49854      962.78584     -1934.4852      1703.6742    
   3543000   254.54255     -2892.3628     -785.36952      958.70658     -1933.6562      1565.1936    
   3544000   254.59271     -2891.9762     -774.25796      958.88961     -1933.0866      1604.7607    
   3545000   247.42095     -2863.7364     -759.98328      932.72334     -1931.0131      1717.4671    
   3546000   250.76463     -2878.1709     -750.07951      944.92281     -1933.248       1820.097     
   3547000   254.73413     -2893.2734     -779.01755      959.40557     -1933.8678      1583.5027    
   3548000   251.16283     -2880.2227     -775.35312      946.37562     -1933.847       1584.5207    
   3549000   251.65074     -2881.3523     -766.42429      948.15578     -1933.1965      1680.6905    
   3550000   255.1779      -2895.871      -783.90925      961.02466     -1934.8463      1536.8162    
   3551000   250.61235     -2880.081      -773.52233      944.36721     -1935.7137      1607.0522    
   3552000   249.27011     -2874.3354     -752.80971      939.47004     -1934.8654      1790.7212    
   3553000   255.44682     -2896.0064     -784.43686      962.00584     -1934.0006      1597.2155    
   3554000   253.66836     -2891.6217     -783.35297      955.51709     -1936.1046      1537.8435    
   3555000   254.55256     -2895.7173     -774.49129      958.74312     -1936.9741      1608.8915    
   3556000   255.41085     -2899.2034     -760.31158      961.87458     -1937.3288      1804.1448    
   3557000   257.81134     -2908.2655     -780.11352      970.63279     -1937.6327      1634.2182    
   3558000   264.439       -2930.1705     -761.39967      994.81389     -1935.3566      1757.0373    
   3559000   252.47442     -2887.3226     -773.87898      951.161       -1936.1616      1623.0558    
   3560000   256.69728     -2902.725      -771.20851      966.56813     -1936.1569      1641.4042    
   3561000   256.06257     -2901.0043     -800.95009      964.25241     -1936.7519      1492.1272    
   3562000   257.03601     -2904.4745     -773.57447      967.80399     -1936.6705      1638.1232    
   3563000   248.87575     -2875.38       -780.05936      938.03119     -1937.3488      1542.7616    
   3564000   254.8069      -2897.7885     -793.31576      959.67106     -1938.1175      1502.1877    
   3565000   257.83062     -2907.692      -784.88675      970.70314     -1936.9888      1639.3858    
   3566000   249.07194     -2874.7395     -766.34172      938.74699     -1935.9925      1661.4315    
   3567000   252.03874     -2885.4304     -776.41979      949.57142     -1935.859       1588.8801    
   3568000   262.79243     -2925.4168     -775.0582       988.80638     -1936.6104      1677.9165    
   3569000   257.9824      -2907.2983     -777.87244      971.25691     -1936.0414      1627.7329    
   3570000   261.88402     -2919.4421     -784.56091      985.49204     -1933.9501      1569.4968    
   3571000   256.06302     -2898.7896     -777.68134      964.25404     -1934.5355      1601.101     
   3572000   254.36177     -2890.0955     -773.28895      958.04699     -1932.0485      1594.5008    
   3573000   267.57957     -2936.8439     -798.59753      1006.2723     -1930.5716      1533.6432    
   3574000   249.09608     -2870.1537     -752.34734      938.83509     -1931.3186      1811.8108    
   3575000   257.64284     -2899.4042     -780.0554       970.01804     -1929.3861      1610.7932    
   3576000   257.0134      -2895.3504     -776.41604      967.72151     -1927.6289      1652.0979    
   3577000   250.85923     -2873.1368     -773.10873      945.26797     -1927.8688      1644.7614    
   3578000   254.3364      -2882.8923     -761.08042      957.95443     -1924.9379      1688.7594    
   3579000   256.05531     -2890.5029     -765.73916      964.22591     -1926.277       1680.9296    
   3580000   260.95247     -2909.2596     -783.73306      982.09327     -1927.1664      1633.0073    
   3581000   255.06094     -2888.0671     -795.93352      960.59795     -1927.4692      1550.4961    
   3582000   251.32756     -2874.1041     -777.42045      946.97667     -1927.1274      1569.0769    
   3583000   250.22412     -2867.3793     -776.80017      942.95072     -1924.4286      1610.5784    
   3584000   248.77607     -2861.5159     -774.73602      937.6675      -1923.8484      1587.073     
   3585000   258.30875     -2895.4986     -784.19501      972.4476      -1923.051       1571.9403    
   3586000   258.13223     -2893.7422     -753.24038      971.80357     -1921.9386      1775.5365    
   3587000   260.81411     -2905.617      -766.89961      981.58844     -1924.0286      1723.1622    
   3588000   257.8628      -2894.4077     -798.64961      970.82054     -1923.5871      1511.0216    
   3589000   258.84689     -2898.3882     -773.30734      974.41102     -1923.9771      1694.6009    
   3590000   256.45079     -2889.2549     -777.92097      965.66881     -1923.5861      1631.5126    
   3591000   261.36663     -2908.4433     -782.43271      983.60432     -1924.839       1580.7086    
   3592000   259.77907     -2902.9661     -780.00468      977.81207     -1925.154       1631.4285    
   3593000   262.32943     -2910.9831     -789.73889      987.1171      -1923.866       1586.0466    
   3594000   259.49785     -2901.2252     -770.88975      976.78607     -1924.4391      1654.1492    
   3595000   258.72047     -2899.4626     -770.24874      973.94978     -1925.5129      1641.4355    
   3596000   252.79295     -2877.7476     -784.57021      952.32313     -1925.4245      1548.6065    
   3597000   252.88704     -2876.9721     -778.54189      952.66645     -1924.3056      1571.2477    
   3598000   250.52171     -2868.365      -768.59627      944.03651     -1924.3285      1634.7954    
   3599000   264.15041     -2915.5034     -794.29231      993.76098     -1921.7424      1565.3584    
   3600000   256.8333      -2888.7552     -782.95912      967.06439     -1921.6908      1533.2463    
   3601000   262.15075     -2910.1415     -770.42099      986.46517     -1923.6764      1724.1324    
   3602000   253.99123     -2882.0581     -783.99466      956.69507     -1925.3631      1595.031     
   3603000   259.57973     -2903.5512     -795.01857      977.08478     -1926.4664      1526.7106    
   3604000   261.41829     -2911.1852     -788.03458      983.79281     -1927.3923      1616.587     
   3605000   257.63213     -2899.5784     -767.24703      969.97893     -1929.5995      1678.5342    
   3606000   256.53963     -2894.0207     -778.76925      965.99295     -1928.0277      1625.0023    
   3607000   257.72474     -2898.8529     -767.87801      970.31683     -1928.536       1704.8       
   3608000   250.29109     -2871.4284     -776.64973      943.19508     -1928.2333      1636.4249    
   3609000   253.84183     -2885.5241     -770.45292      956.15001     -1929.3741      1673.9001    
   3610000   256.05621     -2893.6047     -780.28179      964.22918     -1929.3756      1553.4793    
   3611000   261.08158     -2910.486      -779.06098      982.5643      -1927.9217      1626.1105    
   3612000   251.92858     -2877.0427     -755.53151      949.1695      -1927.8732      1670.9635    
   3613000   258.36564     -2899.0306     -764.73913      972.65516     -1926.3754      1699.8558    
   3614000   251.83019     -2878.1608     -745.06922      948.81052     -1929.3503      1842.5205    
   3615000   265.62132     -2929.5137     -772.6715       999.1276      -1930.3861      1673.2657    
   3616000   250.44611     -2875.0549     -765.09449      943.76066     -1931.2942      1695.739     
   3617000   253.49668     -2885.2565     -765.42749      954.89073     -1930.3657      1694.17      
   3618000   257.00124     -2895.811      -791.68717      967.67714     -1928.1339      1523.7011    
   3619000   257.11774     -2895.1028     -786.78424      968.10218     -1927.0006      1588.8903    
   3620000   260.27952     -2905.4591     -790.1515       979.63797     -1925.8211      1571.6858    
   3621000   263.26184     -2916.8378     -784.07175      990.51903     -1926.3188      1614.6511    
   3622000   253.44223     -2879.6882     -757.10577      954.69207     -1924.9962      1772.2424    
   3623000   253.89396     -2880.573      -784.03592      956.34021     -1924.2328      1522.6303    
   3624000   256.47093     -2891.598      -779.82045      965.74229     -1925.8557      1636.9723    
   3625000   256.01214     -2891.5571     -766.24039      964.06838     -1927.4887      1699.89      
   3626000   255.88576     -2889.1622     -768.61474      963.60728     -1925.5549      1682.2032    
   3627000   255.39826     -2885.6099     -771.03718      961.82865     -1923.7813      1581.681     
   3628000   255.17641     -2884.0492     -769.4537       961.01925     -1923.0299      1654.6884    
   3629000   249.71851     -2862.0089     -756.8684       941.10602     -1920.9029      1687.7286    
   3630000   245.80242     -2849.2743     -758.75736      926.81814     -1922.4561      1649.4188    
   3631000   259.13819     -2898.0417     -781.18106      975.47385     -1922.5679      1573.6994    
   3632000   252.61687     -2875.0534     -771.19891      951.68073     -1923.3727      1592.0614    
   3633000   256.27968     -2888.8804     -752.81636      965.04453     -1923.8359      1756.5796    
   3634000   252.98252     -2876.3766     -736.37854      953.01481     -1923.3618      1901.1316    
   3635000   259.7863      -2901.9792     -775.50302      977.83847     -1924.1408      1630.1004    
   3636000   248.14862     -2858.8811     -759.46209      935.37824     -1923.5028      1684.1074    
   3637000   258.61082     -2896.4581     -794.97752      973.54971     -1922.9084      1530.2793    
   3638000   253.54093     -2879.2697     -783.46493      955.05217     -1924.2176      1520.1524    
   3639000   257.3158      -2893.1053     -772.48011      968.82481     -1924.2805      1668.9385    
   3640000   253.25822     -2880.5822     -772.654        954.02071     -1926.5614      1630.1918    
   3641000   255.45808     -2889.6731     -770.65557      962.04689     -1927.6263      1683.6318    
   3642000   258.09438     -2896.6017     -767.31696      971.66547     -1924.9363      1671.2963    
   3643000   253.60915     -2879.8431     -782.0047       955.30107     -1924.5421      1555.0749    
   3644000   256.45473     -2891.9231     -765.03881      965.6832      -1926.2399      1702.6028    
   3645000   252.7348      -2879.6791     -771.68154      952.111       -1927.5681      1653.006     
   3646000   260.71885     -2909.0484     -764.00646      981.24088     -1927.8075      1747.9839    
   3647000   253.62061     -2883.7892     -776.07025      955.34288     -1928.4463      1601.1195    
   3648000   252.99901     -2883.4043     -752.43067      953.07495     -1930.3294      1748.2006    
   3649000   260.29739     -2910.4296     -762.02934      979.70318     -1930.7264      1748.7113    
   3650000   260.28131     -2911.4072     -777.60164      979.64451     -1931.7627      1554.7829    
   3651000   254.56374     -2890.2052     -782.83667      958.78389     -1931.4213      1569.7823    
   3652000   258.32319     -2906.2076     -771.05545      972.50031     -1933.7072      1673.7608    
   3653000   248.62179     -2871.494      -774.5103       937.10463     -1934.3894      1636.8376    
   3654000   256.00517     -2896.1298     -771.46536      964.04297     -1932.0869      1641.7661    
   3655000   249.71709     -2872.1927     -772.31934      941.10083     -1931.0919      1585.8817    
WARNING: Bond/angle/dihedral extent > half of periodic box length (../domain.cpp:940)
Loop time of 3482.92 on 4 procs for 3500000 steps with 1949 atoms

Performance: 86.824 ns/day, 0.276 hours/ns, 1004.904 timesteps/s
97.5% CPU use with 4 MPI tasks x no OpenMP threads

MPI task timing breakdown:
Section |  min time  |  avg time  |  max time  |%varavg| %total
---------------------------------------------------------------
Pair    | 2033.4     | 2416.9     | 2820.9     | 644.2 | 69.39
Bond    | 77.132     | 88.613     | 99.691     | 115.4 |  2.54
Neigh   | 136        | 136.16     | 136.32     |   1.0 |  3.91
Comm    | 275.38     | 686.84     | 1076       |1236.6 | 19.72
Output  | 0.16309    | 0.16508    | 0.17025    |   0.7 |  0.00
Modify  | 100.37     | 106.05     | 113.34     |  53.1 |  3.04
Other   |            | 48.15      |            |       |  1.38

Nlocal:         487.25 ave         539 max         442 min
Histogram: 1 0 1 0 0 1 0 0 0 1
Nghost:         2322.5 ave        2473 max        2181 min
Histogram: 1 1 0 0 0 0 0 0 1 1
Neighs:        51577.2 ave       59339 max       46026 min
Histogram: 1 1 0 0 0 1 0 0 0 1

Total # of neighbors = 206309
Ave neighs/atom = 105.85377
Ave special neighs/atom = 2.2626988
Neighbor list builds = 59500
Dangerous builds = 0

write_restart slipeq_restart_file.txt
System init for write_restart ...
Generated 0 of 1 mixed pair_coeff terms from geometric mixing rule
Total wall time: 1:00:31
